 # Version information for this restart file 
 # current date 2015-10-23 15:41:58.976
 # current working dir /home/filipe/dev/github/mdff/branches/PIM_quadrupole_tests/cp2k/run
 # Program compiled at                              Sat Oct 11 19:03:13 UTC 2014
 # Program compiled on                                                     binet
 # Program compiled for                                      Linux-i686-gfortran
 # Source code revision number                                         svn:13632
 &GLOBAL
   PRINT_LEVEL  DEBUG
   PROJECT_NAME AIM
   RUN_TYPE  MD
 &END GLOBAL
 &MOTION
   &MD
     ENSEMBLE  NVT
     STEPS  1
     TIMESTEP     9.9999999999999989E-01
     STEP_START_VAL  1
     TIME_START_VAL     9.9999999999999989E-01
     ECONS_START_VAL    -4.2164146888776992E+02
     TEMPERATURE     3.0000000000000000E+02
     &THERMOSTAT
       REGION  GLOBAL
       &NOSE
         LENGTH  3
         YOSHIDA  3
         TIMECON     1.0000000000000001E+03
         MTS  2
         &COORD
               3.0491534420647486E-05   -1.7770267252732081E-05   -4.8368045379022703E-06
         &END COORD
         &VELOCITY
               7.3937445470659207E-07   -4.2981396105336173E-07   -1.2908730935732935E-07
         &END VELOCITY
         &MASS
               1.7487571273478644E+09    1.6237299232570699E+06    1.6237299232570699E+06
         &END MASS
         &FORCE
               1.1693625896727123E-10    3.6683887606155618E-12   -5.8491539845993411E-10
         &END FORCE
       &END NOSE
     &END THERMOSTAT
     &AVERAGES  T
       &RESTART_AVERAGES
         ITIMES_START  1
         AVECPU     1.7982999999993368E+01
         AVEHUGONIOT     0.0000000000000000E+00
         AVETEMP_BARO     0.0000000000000000E+00
         AVEPOT    -4.2225597489623328E+02
         AVEKIN     6.1384557686517360E-01
         AVETEMP     3.5995704902763180E+02
         AVEKIN_QM     0.0000000000000000E+00
         AVETEMP_QM     0.0000000000000000E+00
         AVEVOL     2.1484398205112971E+04
         AVECELL_A     2.7799761140880694E+01
         AVECELL_B     2.7799761140880694E+01
         AVECELL_C     2.7799761140880694E+01
         AVEALPHA     9.0000000000000000E+01
         AVEBETA     9.0000000000000000E+01
         AVEGAMMA     9.0000000000000000E+01
         AVE_ECONS     0.0000000000000000E+00
         AVE_PRESS     0.0000000000000000E+00
         AVE_PXX     0.0000000000000000E+00
       &END RESTART_AVERAGES
     &END AVERAGES
   &END MD
   &PRINT
     &FORCES  SILENT
       FORMAT  XMOL
       &EACH
         MD  1
       &END EACH
     &END FORCES
   &END PRINT
 &END MOTION
 &FORCE_EVAL
   METHOD  FIST
   &MM
     &FORCEFIELD
       &SPLINE
         RCUT_NB     6.8792999999999997E+00
         EMAX_SPLINE     1.0000000000000000E+03
       &END SPLINE
       &NONBONDED
         &BMHFTD
           ATOMS O O
           A     1.0680000000000000E+03
           B     5.0376000000000003E+00
           C     9.7429999999999994E-01
           D     5.2469000000000001E+00
           BD     2.7183999999999999E+00
         &END BMHFTD
         &BMHFTD
           ATOMS Si O
           A     4.3277000000000001E+01
           B     2.9136000000000002E+00
           C     4.7900000000000005E-02
           D     1.5559999999999999E-01
           BD     0.0000000000000000E+00
         &END BMHFTD
         &BMHFTD
           ATOMS Ca O
           A     4.0058199999999999E+01
           B     2.8412999999999999E+00
           C     4.7900000000000005E-02
           D     1.5559999999999999E-01
           BD     0.0000000000000000E+00
         &END BMHFTD
         &BMHFTD
           ATOMS Si Si
           A     0.0000000000000000E+00
           B     2.8170000000000002E+00
           C     4.7000000000000002E-03
           D     5.3000000000000000E-03
           BD     1.8897285785000001E+06
         &END BMHFTD
         &BMHFTD
           ATOMS Si Ca
           A     0.0000000000000000E+00
           B     2.8170000000000002E+00
           C     4.7000000000000002E-03
           D     5.3000000000000000E-03
           BD     1.8897285785000001E+06
         &END BMHFTD
         &BMHFTD
           ATOMS Ca Ca
           A     0.0000000000000000E+00
           B     2.8170000000000002E+00
           C     4.7000000000000002E-03
           D     5.3000000000000000E-03
           BD     1.8897285785000001E+06
         &END BMHFTD
       &END NONBONDED
       &CHARGE
         ATOM O
         CHARGE    -2.0000000000000000E+00
       &END CHARGE
       &CHARGE
         ATOM Si
         CHARGE     4.0000000000000000E+00
       &END CHARGE
       &CHARGE
         ATOM Ca
         CHARGE     2.0000000000000000E+00
       &END CHARGE
       &DIPOLE
         ATOM O
         APOL     1.2991501669120891E+00
         &DAMPING
           ATOM Si
           TYPE Tang-Toennies
           ORDER  4
           BIJ     4.0156680323819920E+00
           CIJ     1.5932999999999999E+00
         &END DAMPING
         &DAMPING
           ATOM Ca
           TYPE Tang-Toennies
           ORDER  4
           BIJ     3.4577754351240171E+00
           CIJ     2.3591952622900001E+00
         &END DAMPING
       &END DIPOLE
       &DIPOLE
         ATOM Ca
         APOL     5.1864096729439269E-01
         &DAMPING
           ATOM O
           TYPE Tang-Toennies
           ORDER  4
           BIJ     6.6135507383530490E+00
           CIJ     1.0037178746700000E+00
         &END DAMPING
         &DAMPING
           ATOM Si
           TYPE Tang-Toennies
           ORDER  4
           BIJ     6.6135507383530490E+00
           CIJ     1.0037178746700000E+00
         &END DAMPING
       &END DIPOLE
       &QUADRUPOLE
         ATOM O
         CPOL     1.1512399999999991E+01
       &END QUADRUPOLE
       &QUADRUPOLE
         ATOM Ca
         CPOL     4.9789189361999950E+00
       &END QUADRUPOLE
     &END FORCEFIELD
     &POISSON
       &EWALD
         EWALD_TYPE  EWALD
         ALPHA     4.9044529999999997E-01
         GMAX  11
         O_SPLINE  6
         &MULTIPOLES  T
           MAX_MULTIPOLE_EXPANSION  QUADRUPOLE
           POL_SCF  SELF_CONSISTENT
           MAX_IPOL_ITER  100
           EPS_POL     9.9999999999999995E-07
         &END MULTIPOLES
       &END EWALD
     &END POISSON
   &END MM
   &SUBSYS
     &CELL
       A     1.4711000000000000E+01    0.0000000000000000E+00    0.0000000000000000E+00
       B     0.0000000000000000E+00    1.4711000000000000E+01    0.0000000000000000E+00
       C     0.0000000000000000E+00    0.0000000000000000E+00    1.4711000000000000E+01
       MULTIPLE_UNIT_CELL  1 1 1
     &END CELL
     &COORD
O    5.0330029051204296E-02    2.7781593718711040E+01    3.2775901157507676E+00
O    1.4154145785672778E-01    3.2738375840266544E-02    1.6359245203470337E+01
O    2.7718834804412310E+01    9.1520214855066033E+00    3.1671371283790912E+00
O    2.7797880906736346E+01    9.3737523440155641E+00    1.6377384384341578E+01
O    2.7752690747940477E+01    1.8454085814164220E+01    3.2130770624544782E+00
O    3.0429088599484483E-02    1.8719068770374129E+01    1.6551212910268397E+01
O    9.4168965036292338E+00    2.7783401909043743E+01    3.3565557620774835E+00
O    9.2164804359557611E+00    8.6573182839981000E-02    1.6380381891605722E+01
O    9.1879340990778271E+00    9.1379170306147213E+00    3.2592407656862017E+00
O    9.2776782150175467E+00    9.2381152427175373E+00    1.6348624005069130E+01
O    9.2738654321771836E+00    1.8532937146471230E+01    3.3607321099448022E+00
O    9.3620449889876038E+00    1.8560410187782786E+01    1.6331655736508466E+01
O    1.8493626737881112E+01    1.3398134798843520E-01    3.2862470376167154E+00
O    1.8472649535838283E+01    2.7785337567537130E+01    1.6330667214599728E+01
O    1.8618581414578600E+01    9.2833897014624753E+00    3.2430928587404555E+00
O    1.8589659074807194E+01    9.1385454106451522E+00    1.6412998770643885E+01
O    1.8605440863176604E+01    1.8624939551895313E+01    3.3740654688776606E+00
O    1.8509992433930151E+01    1.8517034985725989E+01    1.6391888460074540E+01
O    4.6296850277424832E+00    4.5697450493670795E+00    9.7983326435767069E+00
O    4.5460116822979124E+00    4.5561923053826217E+00    2.2978932290025796E+01
O    4.6737142578290305E+00    1.3998078829308016E+01    9.7827731342498367E+00
O    4.7850175949562272E+00    1.3866426307079777E+01    2.2986598326048146E+01
O    4.6397465559137094E+00    2.3317823013851523E+01    9.9072061073081823E+00
O    4.6266581261386559E+00    2.2932998833290121E+01    2.3010683656845014E+01
O    1.3781474139719551E+01    4.6638652119471189E+00    9.9173885533629758E+00
O    1.3856473294551611E+01    4.7177895264549496E+00    2.2963582216251933E+01
O    1.3914389682561412E+01    1.3786170723266524E+01    9.8608436910317590E+00
O    1.3926360228856137E+01    1.3897314774379597E+01    2.3098587402503192E+01
O    1.3907921782431544E+01    2.3191729861133943E+01    9.8817486838398612E+00
O    1.3886672690291100E+01    2.3048463553335814E+01    2.2917818279175389E+01
O    2.3239818848754311E+01    4.6579913112867475E+00    9.7877274280580835E+00
O    2.3075459115523451E+01    4.5196453327693478E+00    2.2963129668484321E+01
O    2.3108688596423278E+01    1.3729709755280288E+01    9.9098520266769441E+00
O    2.3101081981702098E+01    1.4053147747745871E+01    2.2819354850792827E+01
O    2.3368250574760633E+01    2.3260453360224371E+01    9.8535224321780603E+00
O    2.3211815222585230E+01    2.3389431167595191E+01    2.3006799816646932E+01
O    8.8074780852715640E-02    2.4565678348867918E-02    9.8440045969415966E+00
O    2.7700476996168252E+01    4.8236923864646161E-02    2.2955661741673406E+01
O    2.7720926668440455E+01    9.1192882111841378E+00    9.8029274812698119E+00
O    2.4753356802711948E-03    9.1853204244393147E+00    2.2912059387852693E+01
O    9.2196568977622753E-02    1.8640176894142684E+01    9.9596199184849770E+00
O    2.7591599750718597E+01    1.8567033842119038E+01    2.2855118711954212E+01
O    9.2059604713381322E+00    1.5194383449270565E-01    9.8332666682650007E+00
O    9.2569520278702644E+00    2.7774048146408621E+01    2.3037888564783444E+01
O    9.1989898284459262E+00    9.2714338476338494E+00    9.7955641527881863E+00
O    9.3102719171611703E+00    9.1831113251071841E+00    2.2915378147365917E+01
O    9.2543833956576549E+00    1.8610074020915128E+01    9.9696778167395248E+00
O    9.1926283042663233E+00    1.8410129145442895E+01    2.3027208242961766E+01
O    1.8677959919923460E+01    2.3163648203690674E-02    9.8424045808946534E+00
O    1.8547877464181067E+01    2.7741928369788859E+01    2.2950159378630854E+01
O    1.8421866388259875E+01    9.0896357972738535E+00    9.7878690963769639E+00
O    1.8590919610142944E+01    9.3378403641770475E+00    2.2965793007227976E+01
O    1.8565573134876153E+01    1.8491592155077399E+01    1.0014579709457708E+01
O    1.8539667841189551E+01    1.8486891697679212E+01    2.3013031622420609E+01
O    4.5292695423677172E+00    4.6673028868352970E+00    3.2712221329903883E+00
O    4.8299372270828309E+00    4.4984030850224279E+00    1.6463452229676705E+01
O    4.5700315172088812E+00    1.3922882237804675E+01    3.2113937840169484E+00
O    4.6401193769513016E+00    1.3831134449795620E+01    1.6393193006610037E+01
O    4.6624913779569068E+00    2.3143183010108213E+01    3.2869727636188739E+00
O    4.7268364603462318E+00    2.3329256905942430E+01    1.6583388690809251E+01
O    1.4039036341524863E+01    4.5329038074203272E+00    3.2448450526064514E+00
O    1.3853030404637787E+01    4.5555478138906764E+00    1.6250897301059766E+01
O    1.4006744337748485E+01    1.3999844303396525E+01    3.4927703886348698E+00
O    1.3860332121871753E+01    1.3927660912855526E+01    1.6448109461426480E+01
O    1.4023212248667214E+01    2.3006286251201676E+01    3.3218271715660688E+00
O    1.3726616308434814E+01    2.3216142153284622E+01    1.6364846361860607E+01
O    2.3114913797476728E+01    4.6519419003509475E+00    3.2372481187911388E+00
O    2.3148235341228009E+01    4.6244010412115468E+00    1.6446288620237215E+01
O    2.3423973064748893E+01    1.3969990561070910E+01    3.2751875738655207E+00
O    2.3193834621354718E+01    1.3692599773422119E+01    1.6270900871472470E+01
O    2.3144688081056280E+01    2.3196696659280139E+01    3.2955466636365864E+00
O    2.3398194108223571E+01    2.3143420544821208E+01    1.6375433115061497E+01
O    6.7627480896436101E+00    2.2637033108098192E+00    6.2743729604661791E+00
O    6.9334868965720444E+00    2.3262225403713082E+00    1.9805755767349481E+01
O    6.8147669460619946E+00    1.1703154965107554E+01    6.4520898988296445E+00
O    7.0049879511243738E+00    1.1545604671711025E+01    1.9802502993703566E+01
O    6.9640860190930294E+00    2.0943415636265396E+01    6.6150984714955179E+00
O    6.9871480643969388E+00    2.0790375722995837E+01    1.9800046915524849E+01
O    1.6305816225134457E+01    2.4486762771882731E+00    6.6616015764468033E+00
O    1.6184018559004542E+01    2.4869865106921414E+00    1.9726329225903246E+01
O    1.6235771205793409E+01    1.1524501949461547E+01    6.5912702707109165E+00
O    1.6285118642047777E+01    1.1768569729559026E+01    1.9607857949926160E+01
O    1.6170110593795151E+01    2.0911717198574717E+01    6.7368092369437758E+00
O    1.6270035196483576E+01    2.0952469764058389E+01    1.9655381806642211E+01
O    2.5451580478359730E+01    2.4448768967933372E+00    6.5627027612938269E+00
O    2.5405319490978655E+01    2.4322856934564339E+00    1.9668527158332648E+01
O    2.5493389475994512E+01    1.1541655338492230E+01    6.6160343187915016E+00
O    2.5619246702724297E+01    1.1698375127139796E+01    1.9707921675761192E+01
O    2.5587457159524224E+01    2.1007448628237444E+01    6.4659919380643656E+00
O    2.5449614088751058E+01    2.0931785345344032E+01    1.9743677351737073E+01
O    2.2270466065561427E+00    2.2883963077516500E+00    6.4937045500996522E+00
O    2.3114606809688896E+00    2.3503512216188063E+00    1.9712655654680177E+01
O    2.2494601532006064E+00    1.1589286619473702E+01    6.4650541342536707E+00
O    2.2580784430283063E+00    1.1607419788266808E+01    1.9773482061276681E+01
O    2.4144358466483200E+00    2.0946433412863357E+01    6.5870364458168948E+00
O    2.2021637142451027E+00    2.0935825487671313E+01    1.9655429106933113E+01
O    1.1517607641091491E+01    2.3793930238255334E+00    6.5893035037324319E+00
O    1.1589399980293551E+01    2.3454162538374210E+00    1.9721851177162428E+01
O    1.1450827838440341E+01    1.1548680988531482E+01    6.4761951141036667E+00
O    1.1712935305198648E+01    1.1528575025643002E+01    1.9746041793667093E+01
O    1.1565399550773005E+01    2.0986646735999798E+01    6.5559729934279023E+00
O    1.1595864542463454E+01    2.0916773358601702E+01    1.9765408386956086E+01
O    2.0852376158754062E+01    2.3397596095614008E+00    6.4760119635180011E+00
O    2.0792803958001194E+01    2.2481930668085384E+00    1.9555392489138438E+01
O    2.0751498800799382E+01    1.1588808973586984E+01    6.5226669594846429E+00
O    2.0901683571055827E+01    1.1582866144620496E+01    1.9739591965123779E+01
O    2.0856564155079983E+01    2.0997594912770229E+01    6.6766403554730767E+00
O    2.0787998923722629E+01    2.0924830957378223E+01    1.9751627234895363E+01
O    2.3549902646801404E+00    6.9533491148171649E+00    2.6233597558840671E+01
O    2.3629814580585302E+00    7.0857153595645510E+00    1.3180759600078746E+01
O    2.2442416102509357E+00    1.6166533281508531E+01    2.6022856749200130E+01
O    2.4705535374866030E+00    1.6387529108158621E+01    1.3093688157783930E+01
O    2.2018655466903203E+00    2.5335443071766765E+01    2.6224270305688155E+01
O    2.4134375729187063E+00    2.5643134130054307E+01    1.3238132265705303E+01
O    1.1726769359419750E+01    7.0162639302731025E+00    7.1794866789836986E-02
O    1.1543155480135926E+01    7.1291142007788126E+00    1.3013224900438543E+01
O    1.1616919482786948E+01    1.6230085176985181E+01    2.0124841029315530E-02
O    1.1753736004616316E+01    1.6355177344373370E+01    1.3107008801208147E+01
O    1.1588997843059746E+01    2.5526744321804905E+01    2.6153729024957816E+01
O    1.1566143139369034E+01    2.5477866732344363E+01    1.3192810885492836E+01
O    2.0921534291177132E+01    7.0965191527851736E+00    2.6095576765578073E+01
O    2.0844814727943241E+01    6.7789695402990580E+00    1.3015745720655991E+01
O    2.0932878186023263E+01    1.6306443053817517E+01    1.0968475171309065E-01
O    2.0873101265609485E+01    1.6165997137005480E+01    1.3037991984540234E+01
O    2.0734248769496681E+01    2.5516749863046613E+01    9.0062452124221298E-03
O    2.0850536442981817E+01    2.5461752249050587E+01    1.3067765205081344E+01
O    7.0170901036161020E+00    6.8663207931002717E+00    1.7235301779901371E-02
O    6.8792923393669847E+00    6.9568822743640322E+00    1.3022323735121780E+01
O    6.9733516060198451E+00    1.6273756720806709E+01    4.9108395206904881E-02
O    6.9996788720430807E+00    1.6206428046574509E+01    1.3117233751614588E+01
O    6.9697357153375377E+00    2.5565425962706577E+01    1.7274064428111930E-02
O    7.0798471913193826E+00    2.5546098750072435E+01    1.3185983403610937E+01
O    1.6301619316613351E+01    6.9730161013357925E+00    2.6150472442732848E+01
O    1.6141110171382312E+01    7.0037889863669429E+00    1.3161132750728349E+01
O    1.6291925717916651E+01    1.6283042899399195E+01    2.0161745391579933E-01
O    1.6306629984378969E+01    1.6147806323529590E+01    1.3071661793288634E+01
O    1.6118181172925262E+01    2.5486733723874217E+01    1.3961290025092668E-01
O    1.6431071351690907E+01    2.5403673929321240E+01    1.2960861355309703E+01
O    2.5543832004209701E+01    7.0169376301572655E+00    2.6154686169270374E+01
O    2.5461095079835314E+01    6.9426711415060396E+00    1.3141274737145926E+01
O    2.5482546000276599E+01    1.6279539843857652E+01    2.6078835629528275E+01
O    2.5704922569238271E+01    1.6215398452234073E+01    1.3158823767687039E+01
O    2.5481552240917157E+01    2.5477388864101901E+01    1.2734593693812762E-01
O    2.5592578272780106E+01    2.5581810713436028E+01    1.3196560408995049E+01
O    2.2119474407040616E+00    6.8467761760728836E+00    6.4898100991860970E+00
O    2.4296289222034364E+00    6.8571964866743720E+00    1.9564558721197621E+01
O    2.3530558226382494E+00    1.6329119441731432E+01    6.4064189743130653E+00
O    2.2738716229340765E+00    1.6251860477868117E+01    1.9769031416050399E+01
O    2.4264805838832562E+00    2.5548755618753997E+01    6.4953249088364808E+00
O    2.2568620156188497E+00    2.5562989496606630E+01    1.9817780272616989E+01
O    1.1694966949638887E+01    6.9962762980054007E+00    6.5239682564206856E+00
O    1.1549527315565657E+01    6.9176343561743732E+00    1.9675619462005248E+01
O    1.1611226719450855E+01    1.6261213442651204E+01    6.7786384586120301E+00
O    1.1576175145751247E+01    1.6267152956949932E+01    1.9722301840671047E+01
O    1.1713535133045712E+01    2.5624866809738059E+01    6.5674653906605789E+00
O    1.1462681713530570E+01    2.5473223963028527E+01    1.9743127461373287E+01
O    2.0813060191237053E+01    6.9444722738014821E+00    6.5567548392831343E+00
O    2.0826873087512780E+01    6.9425240350833004E+00    1.9555384116215063E+01
O    2.0960677507494232E+01    1.6201088224171457E+01    6.4870188717645396E+00
O    2.0824861157570577E+01    1.6238868759019770E+01    1.9474362369037106E+01
O    2.0999667295602606E+01    2.5546980168611604E+01    6.5915055427770808E+00
O    2.0896289485518544E+01    2.5496330303238381E+01    1.9466929711193451E+01
O    7.0467753159516064E+00    6.9316018507231618E+00    6.5937711257330971E+00
O    7.0127408599013954E+00    6.8376943032964679E+00    1.9803196770995317E+01
O    7.0402386795992884E+00    1.6106861502594970E+01    6.6307128674745881E+00
O    7.0067678735022838E+00    1.6149368387339706E+01    1.9559232366906397E+01
O    7.1788393753201358E+00    2.5454765163261055E+01    6.7107744245256518E+00
O    6.9304644571514631E+00    2.5518827324646637E+01    1.9713748026530109E+01
O    1.6314078356552933E+01    6.9105073406238304E+00    6.3950754501414462E+00
O    1.6204179978705206E+01    7.0417128728264222E+00    1.9640959262097624E+01
O    1.6373078215403119E+01    1.6179058140792066E+01    6.5869817949523268E+00
O    1.6302894180757274E+01    1.6246821440945215E+01    1.9716715688057839E+01
O    1.6392422257680771E+01    2.5510062323850029E+01    6.5983963903290705E+00
O    1.6221373337818292E+01    2.5551532131526738E+01    1.9530342705040514E+01
O    2.5591869292659013E+01    6.9275233447832489E+00    6.4313535134888351E+00
O    2.5539115199149606E+01    7.0567858702229724E+00    1.9640843595197467E+01
O    2.5647042711952039E+01    1.6232683201600693E+01    6.7443559019719359E+00
O    2.5628105982887284E+01    1.6160152375038908E+01    1.9549346351327898E+01
O    2.5599272320336887E+01    2.5507341874095911E+01    6.5377309374277131E+00
O    2.5625264251946607E+01    2.5533946748679956E+01    1.9626772376589404E+01
O    6.8636691340236835E+00    2.2868278605692232E+00    1.9776291866610049E-02
O    6.9948841712551042E+00    2.2954052513837788E+00    1.3085857802942941E+01
O    6.9598771984371490E+00    1.1463705493289680E+01    2.6154807280404619E+01
O    6.9976195224470503E+00    1.1631832718917774E+01    1.3045970583121351E+01
O    6.8617738054723256E+00    2.0852893329247021E+01    9.0527925906637094E-02
O    6.9508345523769366E+00    2.0809495039428469E+01    1.3336909930413347E+01
O    1.6223972633130305E+01    2.2828298217891496E+00    2.6135144902292868E+01
O    1.6408485320992096E+01    2.3520110389802453E+00    1.2910250710203558E+01
O    1.6336320503670720E+01    1.1634430382286627E+01    2.1094382353750885E-02
O    1.6200928822956687E+01    1.1540051834519332E+01    1.3217751580201382E+01
O    1.6320124851723378E+01    2.0841243877886374E+01    1.2785341894787827E-01
O    1.6228737580647767E+01    2.0794284322285851E+01    1.3256081920864009E+01
O    2.5505258769388224E+01    2.4344611428567142E+00   -2.0046990360604562E-03
O    2.5605980310772335E+01    2.3012772768080474E+00    1.3091799494603817E+01
O    2.5515601680382808E+01    1.1708503423426668E+01    2.6137850690572360E+01
O    2.5555439684579547E+01    1.1547900605144006E+01    1.3055596690303457E+01
O    2.5603530674858519E+01    2.0820125521606403E+01    1.3074307874602162E-02
O    2.5526699411414636E+01    2.0831220260366639E+01    1.3194256686630903E+01
O    2.2283370147499233E+00    2.2144419557480308E+00   -7.7407573404193620E-03
O    2.2712081555339703E+00    2.3687140758985477E+00    1.3056332099918551E+01
O    2.2226804800350854E+00    1.1534085598397903E+01    2.6117198437334846E+01
O    2.3471609264994946E+00    1.1687012576956651E+01    1.3006052027496168E+01
O    2.2664350942375635E+00    2.0766305612173333E+01    4.2158761482301868E-02
O    2.2230655426262600E+00    2.1045933755072067E+01    1.3207446950454189E+01
O    1.1546356154244403E+01    2.2986558429482979E+00    3.8310111865357370E-02
O    1.1696480000799632E+01    2.2619775163667968E+00    1.3024943393424749E+01
O    1.1678131750552131E+01    1.1506960844372689E+01    1.4226828101804448E-01
O    1.1522893590446525E+01    1.1743686346995297E+01    1.3201000892835534E+01
O    1.1487454848400976E+01    2.0728734151765529E+01    2.6185742206006434E+01
O    1.1545127681353968E+01    2.0868335760187900E+01    1.3068068298398559E+01
O    2.0741114507461646E+01    2.4161527789387178E+00    2.6150039360728684E+01
O    2.0972134236760915E+01    2.2708136391563332E+00    1.3133167371546508E+01
O    2.0896465125799129E+01    1.1702892413612474E+01    2.6202992262971062E+01
O    2.0655756104448812E+01    1.1431455298232096E+01    1.3145481025160198E+01
O    2.0925229818907749E+01    2.0822658931851652E+01    2.3859766306632824E-02
O    2.0952298807541702E+01    2.0872992755899215E+01    1.3226695637943228E+01
Si    2.7817558287429289E+01    2.7820228843754929E+01    2.6171232137985911E+01
Si    4.3421569438394023E-02    2.7799004869088346E+01    1.3229996752296698E+01
Si    2.7763075131676395E+01    9.3102286018575739E+00    2.6188852732277329E+01
Si    2.7801237116877530E+01    9.2162166017425715E+00    1.3024610357285621E+01
Si    2.7687016604211127E+01    1.8554083611633175E+01    2.6175816585871786E+01
Si    5.2965585808273562E-02    1.8621067523983474E+01    1.3249438828887939E+01
Si    9.2066379414664592E+00    2.2115050079951522E-02    2.6176975435288576E+01
Si    9.2950154409339465E+00    7.5888874352406127E-02    1.3125370573364439E+01
Si    9.3923301278832270E+00    9.1958229746479585E+00    3.5786140364186536E-02
Si    9.2844383743519217E+00    9.3450549923950756E+00    1.3078344696699046E+01
Si    9.2797635079126284E+00    1.8523569516076190E+01    1.0376884624341455E-01
Si    9.2024815760775844E+00    1.8518998744857065E+01    1.3228013718786849E+01
Si    1.8569469465145701E+01    3.8478637300707268E-02    2.6227317251404259E+01
Si    1.8557947262182953E+01    2.7790541896931273E+01    1.3011999680350533E+01
Si    1.8678630080157351E+01    9.2919861813188191E+00    6.5920075102150810E-02
Si    1.8532335333720027E+01    9.1997270735717986E+00    1.3067317201020511E+01
Si    1.8603055415887781E+01    1.8486207972695617E+01    2.6191434462506802E+01
Si    1.8516372581796915E+01    1.8495204733785773E+01    1.3064674836430420E+01
Si    4.5413783401792625E+00    4.5765580175283800E+00    4.8950110835211148E-02
Si    4.6247861040411635E+00    4.6227786470470171E+00    1.3148289558724761E+01
Si    4.6563070236738993E+00    1.3912988694828700E+01    1.8073406262782508E-02
Si    4.6366656201576646E+00    1.3972899346279185E+01    1.3149516318466050E+01
Si    4.5127288788368061E+00    2.3019277656010580E+01    1.7042171958041887E-02
Si    4.6773629976765703E+00    2.3260403623672190E+01    1.3135698923214791E+01
Si    1.3898126323263403E+01    4.7351494261149956E+00    2.6223486551412030E+01
Si    1.3836252240511151E+01    4.6733171902254469E+00    1.3103884725826365E+01
Si    1.3961406104597739E+01    1.3873995003275668E+01   -1.0878510456427755E-03
Si    1.3826872529084959E+01    1.3948340456138528E+01    1.3082660117983909E+01
Si    1.3895605341484284E+01    2.3163959962309001E+01    4.8866991165855224E-02
Si    1.3731227217652043E+01    2.3155142561048322E+01    1.3105333778712069E+01
Si    2.3113363229598061E+01    4.7484370748947704E+00    2.6209618548484830E+01
Si    2.3129076672213806E+01    4.6247228676298491E+00    1.3096570359973231E+01
Si    2.3164199736352590E+01    1.3884721455906327E+01    2.6151513267433696E+01
Si    2.3043490199649248E+01    1.3841637816647717E+01    1.3037031478164744E+01
Si    2.3154983000503321E+01    2.3319660322404687E+01    2.6165835363401257E+01
Si    2.3248061263870408E+01    2.3265849269212726E+01    1.3209988113199801E+01
Si    6.7906213216905834E-02    2.7801602624005586E+01    6.5870756443128355E+00
Si    5.4745701432628066E-02    2.7801016308672168E+01    1.9762480047681077E+01
Si    2.8624565683203256E-02    9.2830096780865379E+00    6.4809026506209584E+00
Si    5.9574850876791367E-02    9.2988670134931883E+00    1.9699529579428191E+01
Si    1.8125177040642895E-03    1.8572506661764187E+01    6.5040192403110186E+00
Si    2.7763839460181309E+01    1.8520134144041016E+01    1.9650489697788686E+01
Si    9.3124095781723266E+00    2.6560133958428170E-02    6.5511575670632638E+00
Si    9.2689789930888224E+00    2.3855460136961621E-02    1.9724815060747648E+01
Si    9.2336344363723075E+00    9.3061604960673883E+00    6.5493469676625722E+00
Si    9.3867200724324711E+00    9.2908981075241943E+00    1.9754709121750011E+01
Si    9.2887443066046966E+00    1.8620599509384789E+01    6.6096302152655655E+00
Si    9.3342114384756201E+00    1.8531026043179821E+01    1.9790777227075026E+01
Si    1.8711776995242232E+01    2.7764225846177474E+01    6.6369443752441901E+00
Si    1.8497668880574405E+01    2.7834944306369572E+01    1.9661452085181466E+01
Si    1.8625669405314277E+01    9.2312255332907895E+00    6.5388157538337994E+00
Si    1.8641401198546752E+01    9.2123855647955715E+00    1.9648447496467188E+01
Si    1.8612988830457557E+01    1.8601503213970449E+01    6.5860575035242723E+00
Si    1.8518074731858015E+01    1.8410157042637756E+01    1.9577293875722813E+01
Si    4.6444378033829059E+00    4.5970779218473128E+00    6.4741848102332993E+00
Si    4.5882940364417797E+00    4.5758582840613826E+00    1.9765242821862877E+01
Si    4.7046303021078009E+00    1.4004151412433888E+01    6.5763562549331374E+00
Si    4.7014444673381135E+00    1.3959445790688729E+01    1.9763173807439024E+01
Si    4.6645212647051100E+00    2.3136755161701167E+01    6.6347731705070565E+00
Si    4.6769663439099745E+00    2.3167300404994400E+01    1.9727735778295191E+01
Si    1.3896086880284663E+01    4.5635511708280436E+00    6.4756647047960749E+00
Si    1.3966366908352917E+01    4.6561983413822636E+00    1.9654862116880956E+01
Si    1.4077336032977932E+01    1.3940180287256753E+01    6.6427324941658812E+00
Si    1.3918676069786011E+01    1.3899503641071075E+01    1.9624623592441164E+01
Si    1.3925668784688648E+01    2.3201188611384318E+01    6.5488929090815295E+00
Si    1.3859303968632769E+01    2.3084173645598543E+01    1.9638525713642537E+01
Si    2.3170793750505855E+01    4.5961813803935376E+00    6.4533074616656911E+00
Si    2.3279150478044080E+01    4.7119747113984340E+00    1.9572295745872388E+01
Si    2.3219291822402251E+01    1.3887406106324372E+01    6.5018092871586672E+00
Si    2.3282627463145392E+01    1.3925573381733091E+01    1.9697318941341273E+01
Si    2.3259182630234150E+01    2.3287578352006115E+01    6.5747394300282327E+00
Si    2.3222503137458585E+01    2.3146214214601315E+01    1.9658641159579357E+01
Ca    4.5758002673352243E+00    2.7579244672309720E+01    3.3033000041802278E+00
Ca    4.6240712327322893E+00    8.8017154255943225E-02    1.6427395317752921E+01
Ca    4.6015202991310042E+00    9.1654520856148629E+00    3.2722660611928913E+00