 # Version information for this restart file 
 # current date 2015-10-23 15:53:52.510
 # current working dir /home/filipe/dev/github/mdff/branches/PIM_quadrupole_tests/cp2k/run
 # Program compiled at                              Sat Oct 11 19:03:13 UTC 2014
 # Program compiled on                                                     binet
 # Program compiled for                                      Linux-i686-gfortran
 # Source code revision number                                         svn:13632
 &GLOBAL
   PRINT_LEVEL  DEBUG
   PROJECT_NAME AIM
   RUN_TYPE  MD
 &END GLOBAL
 &MOTION
   &MD
     ENSEMBLE  NVT
     STEPS  1
     TIMESTEP     9.9999999999999989E-01
     STEP_START_VAL  1
     TIME_START_VAL     9.9999999999999989E-01
     ECONS_START_VAL    -4.2164158250720646E+02
     TEMPERATURE     3.0000000000000000E+02
     &THERMOSTAT
       REGION  GLOBAL
       &NOSE
         LENGTH  3
         YOSHIDA  3
         TIMECON     1.0000000000000001E+03
         MTS  2
         &COORD
               3.0491533311570998E-05   -1.7770267264882576E-05   -4.8368045379022170E-06
         &END COORD
         &VELOCITY
               7.3937434739787941E-07   -4.2981396281776222E-07   -1.2908730935731892E-07
         &END VELOCITY
         &MASS
               1.7487571273478644E+09    1.6237299232570699E+06    1.6237299232570699E+06
         &END MASS
         &FORCE
               1.1693106772293149E-10    3.6682178594227220E-12   -5.8491539845841737E-10
         &END FORCE
       &END NOSE
     &END THERMOSTAT
     &AVERAGES  T
       &RESTART_AVERAGES
         ITIMES_START  1
         AVECPU     1.7676999999996859E+01
         AVEHUGONIOT     0.0000000000000000E+00
         AVETEMP_BARO     0.0000000000000000E+00
         AVEPOT    -4.2225608396083936E+02
         AVEKIN     6.1384103775240251E-01
         AVETEMP     3.5995438730667155E+02
         AVEKIN_QM     0.0000000000000000E+00
         AVETEMP_QM     0.0000000000000000E+00
         AVEVOL     2.1484398205112971E+04
         AVECELL_A     2.7799761140880694E+01
         AVECELL_B     2.7799761140880694E+01
         AVECELL_C     2.7799761140880694E+01
         AVEALPHA     9.0000000000000000E+01
         AVEBETA     9.0000000000000000E+01
         AVEGAMMA     9.0000000000000000E+01
         AVE_ECONS     0.0000000000000000E+00
         AVE_PRESS     0.0000000000000000E+00
         AVE_PXX     0.0000000000000000E+00
       &END RESTART_AVERAGES
     &END AVERAGES
   &END MD
   &PRINT
     &FORCES  SILENT
       FORMAT  XMOL
       &EACH
         MD  1
       &END EACH
     &END FORCES
   &END PRINT
 &END MOTION
 &FORCE_EVAL
   METHOD  FIST
   &MM
     &FORCEFIELD
       &SPLINE
         RCUT_NB     6.8792999999999997E+00
         EMAX_SPLINE     1.0000000000000000E+03
       &END SPLINE
       &NONBONDED
         &BMHFTD
           ATOMS O O
           A     1.0680000000000000E+03
           B     5.0376000000000003E+00
           C     9.7429999999999994E-01
           D     5.2469000000000001E+00
           BD     2.7183999999999999E+00
         &END BMHFTD
         &BMHFTD
           ATOMS Si O
           A     4.3277000000000001E+01
           B     2.9136000000000002E+00
           C     4.7900000000000005E-02
           D     1.5559999999999999E-01
           BD     0.0000000000000000E+00
         &END BMHFTD
         &BMHFTD
           ATOMS Ca O
           A     4.0058199999999999E+01
           B     2.8412999999999999E+00
           C     4.7900000000000005E-02
           D     1.5559999999999999E-01
           BD     0.0000000000000000E+00
         &END BMHFTD
         &BMHFTD
           ATOMS Si Si
           A     0.0000000000000000E+00
           B     2.8170000000000002E+00
           C     4.7000000000000002E-03
           D     5.3000000000000000E-03
           BD     1.8897285785000001E+06
         &END BMHFTD
         &BMHFTD
           ATOMS Si Ca
           A     0.0000000000000000E+00
           B     2.8170000000000002E+00
           C     4.7000000000000002E-03
           D     5.3000000000000000E-03
           BD     1.8897285785000001E+06
         &END BMHFTD
         &BMHFTD
           ATOMS Ca Ca
           A     0.0000000000000000E+00
           B     2.8170000000000002E+00
           C     4.7000000000000002E-03
           D     5.3000000000000000E-03
           BD     1.8897285785000001E+06
         &END BMHFTD
       &END NONBONDED
       &CHARGE
         ATOM O
         CHARGE    -2.0000000000000000E+00
       &END CHARGE
       &CHARGE
         ATOM Si
         CHARGE     4.0000000000000000E+00
       &END CHARGE
       &CHARGE
         ATOM Ca
         CHARGE     2.0000000000000000E+00
       &END CHARGE
       &DIPOLE
         ATOM O
         APOL     1.2991501669120891E+00
         &DAMPING
           ATOM Si
           TYPE Tang-Toennies
           ORDER  4
           BIJ     4.0156680323819920E+00
           CIJ     1.5932999999999999E+00
         &END DAMPING
         &DAMPING
           ATOM Ca
           TYPE Tang-Toennies
           ORDER  4
           BIJ     3.4577754351240171E+00
           CIJ     2.3591952622900001E+00
         &END DAMPING
       &END DIPOLE
       &DIPOLE
         ATOM Ca
         APOL     5.1864096729439269E-01
         &DAMPING
           ATOM O
           TYPE Tang-Toennies
           ORDER  4
           BIJ     6.6135507383530490E+00
           CIJ     1.0037178746700000E+00
         &END DAMPING
         &DAMPING
           ATOM Si
           TYPE Tang-Toennies
           ORDER  4
           BIJ     6.6135507383530490E+00
           CIJ     1.0037178746700000E+00
         &END DAMPING
       &END DIPOLE
       &QUADRUPOLE
         ATOM O
         CPOL     1.1512399999999991E+01
       &END QUADRUPOLE
       &QUADRUPOLE
         ATOM Ca
         CPOL     4.9789189361999950E+00
       &END QUADRUPOLE
     &END FORCEFIELD
     &POISSON
       &EWALD
         EWALD_TYPE  EWALD
         ALPHA     4.9044529999999997E-01
         GMAX  11
         O_SPLINE  6
         &MULTIPOLES  T
           MAX_MULTIPOLE_EXPANSION  QUADRUPOLE
           POL_SCF  SELF_CONSISTENT
           MAX_IPOL_ITER  100
           EPS_POL     9.9999999999999995E-07
         &END MULTIPOLES
       &END EWALD
     &END POISSON
   &END MM
   &SUBSYS
     &CELL
       A     1.4711000000000000E+01    0.0000000000000000E+00    0.0000000000000000E+00
       B     0.0000000000000000E+00    1.4711000000000000E+01    0.0000000000000000E+00
       C     0.0000000000000000E+00    0.0000000000000000E+00    1.4711000000000000E+01
       MULTIPLE_UNIT_CELL  1 1 1
     &END CELL
     &COORD
O    2.6633382612557519E-02    1.4701360791606719E+01    1.7344293566189830E+00
O    7.4900438705848033E-02    1.7324491979971449E-02    8.6569376789331507E+00
O    1.4668181387746261E+01    4.8430412009611388E+00    1.6759712812342185E+00
O    1.4709987197872131E+01    4.9603740192655170E+00    8.6665375974806889E+00
O    1.4686093823993227E+01    9.7654750423532963E+00    1.7002846426708111E+00
O    1.6102396956543922E-02    9.9056988607615235E+00    8.7585174479297514E+00
O    4.9832007565052363E+00    1.4702359870050412E+01    1.7762168212029132E+00
O    4.8771497151353183E+00    4.5812451462299807E-02    8.6681196710762034E+00
O    4.8620426589055104E+00    4.8355780512575697E+00    1.7247198083486719E+00
O    4.9095348389740536E+00    4.8886020516878936E+00    8.6513111752204139E+00
O    4.9075166684924350E+00    9.8071995544745647E+00    1.7784234052003653E+00
O    4.9541812917304213E+00    9.8217432532242306E+00    8.6423337865079883E+00
O    9.7864023527713773E+00    7.0899921603594637E-02    1.7390026362955251E+00
O    9.7753059936017692E+00    1.4703400153496272E+01    8.6418133359012632E+00
O    9.8525275601406204E+00    4.9125556466021401E+00    1.7161708397465811E+00
O    9.8372241343109241E+00    4.8359090910516924E+00    8.6853802970679901E+00
O    9.8455753521865450E+00    9.8558916308649280E+00    1.7854728271389542E+00
O    9.7950615763890543E+00    9.7987855579792900E+00    8.6742129092885900E+00
O    2.4499263208324056E+00    2.4182001355311504E+00    5.1850499447424587E+00
O    2.4056494463894960E+00    2.4110357515031171E+00    1.2159962483263964E+01
O    2.4732179725061685E+00    7.4074633345970629E+00    5.1768156956192266E+00
O    2.5321178402390454E+00    7.3377908979216118E+00    1.2164021206700514E+01
O    2.4552478761358456E+00    1.2339254249021719E+01    5.2426637757050729E+00
O    2.4483228679530011E+00    1.2135653124758152E+01    1.2176715394412927E+01
O    7.2928373062334453E+00    2.4680118211032243E+00    5.2480584693836327E+00
O    7.3325250494355485E+00    2.4965425583564009E+00    1.2151796490226747E+01
O    7.3631770360184587E+00    7.2953272277766548E+00    5.2181297351144860E+00
O    7.3695092474223012E+00    7.3541430344778966E+00    1.2223265490170800E+01
O    7.3597550524683406E+00    1.2272497436762929E+01    5.2291937050185071E+00
O    7.3485093844015292E+00    1.2196743879390867E+01    1.2127543411618893E+01
O    1.2298021612579689E+01    2.4649023710297993E+00    5.1794375080857895E+00
O    1.2211047700481032E+01    2.3916960051532166E+00    1.2151519651360555E+01
O    1.2228616285790840E+01    7.2654496399810347E+00    5.2440611234705328E+00
O    1.2224607444404221E+01    7.4365998877547659E+00    1.2075512251289210E+01
O    1.2365903793646689E+01    1.2308885457942178E+01    5.2142564951642036E+00
O    1.2283200118674317E+01    1.2377153569425051E+01    1.2174712461572303E+01
O    4.6607218814161092E-02    1.2999789331486022E-02    5.2092199586343293E+00
O    1.4658412769067406E+01    2.5525705194006227E-02    1.2147620210488759E+01
O    1.4669234289051767E+01    4.8257131474024240E+00    5.1874862873452701E+00
O    1.3096815929140137E-03    4.8606632914722816E+00    1.2124531735856555E+01
O    4.8788330886295424E-02    9.8639529658256997E+00    5.2704047383531902E+00
O    1.4600835107815261E+01    9.8252461778438516E+00    1.2094387649251059E+01
O    4.8715816222037374E+00    8.0405252721381590E-02    5.2035341824547201E+00
O    4.8985659359588682E+00    1.4697388755885866E+01    1.2191131233649610E+01
O    4.8678910622482849E+00    4.9062277957293832E+00    5.1835846614736827E+00
O    4.9267828541357606E+00    4.8594931873698011E+00    1.2126339946200744E+01
O    4.8972055828659204E+00    9.8480245429182158E+00    5.2757288312309916E+00
O    4.8645247009347035E+00    9.7422195067018915E+00    1.2185512015916165E+01
O    9.8839480867992382E+00    1.2257646219292619E-02    5.2083691157207239E+00
O    9.8151083549380296E+00    1.4680360681278136E+01    1.2144717637053652E+01
O    9.7484319806158091E+00    4.8100230606858387E+00    5.1795128616260744E+00
O    9.8378835578140027E+00    4.9413668354467193E+00    1.2153000935173964E+01
O    9.8244730545114169E+00    9.7853219932064111E+00    5.2994845771411745E+00
O    9.8107706725577160E+00    9.7828421687979645E+00    1.2177939718447387E+01
O    2.3967870505645954E+00    2.4698291805416264E+00    1.7310524648841159E+00
O    2.5558955849939839E+00    2.3804482734271137E+00    8.7120773248175940E+00
O    2.4183561808350826E+00    7.3676729299490065E+00    1.6993982015516631E+00
O    2.4554488176379796E+00    7.3191178617257799E+00    8.6748990222582414E+00
O    2.4672814600038762E+00    1.2246880201942805E+01    1.7393877578298218E+00
O    2.5013337473976849E+00    1.2345307274706833E+01    8.7755490630646378E+00
O    7.4291332597102402E+00    2.3987086905752855E+00    1.7170932497954914E+00
O    7.3307024899780711E+00    2.4106910709192721E+00    8.5995984273552200E+00
O    7.4120458825044606E+00    7.4083986616493656E+00    1.8482912221696051E+00
O    7.3345736184705643E+00    7.3701937876926911E+00    8.7039628724032365E+00
O    7.4207605209176917E+00    1.2174429218144629E+01    1.7578365615439686E+00
O    7.2638137725564462E+00    1.2285437217220309E+01    8.6599046752878621E+00
O    1.2231831281477671E+01    2.4617050536903311E+00    1.7130758995658748E+00
O    1.2249501591982362E+01    2.4471234503080672E+00    8.7029965180822479E+00
O    1.2395410512889606E+01    7.3925931539513092E+00    1.7331579377838968E+00
O    1.2273604345104902E+01    7.2458084818659225E+00    8.6101838057689051E+00
O    1.2247631362236776E+01    1.2275164329367364E+01    1.7439297951402137E+00
O    1.2381792212135357E+01    1.2247014846737851E+01    8.6655013015830935E+00
O    3.5786927712481504E+00    1.1978974365376007E+00    3.3202531540770264E+00
O    3.6690382655016767E+00    1.2309839474376301E+00    1.0480760201602999E+01
O    3.6062211133161752E+00    6.1930355079161092E+00    3.4142998971279139E+00
O    3.7068793991172697E+00    6.1096730227359970E+00    1.0478990725881362E+01
O    3.6852301823017704E+00    1.1082786268367599E+01    3.5005581287140375E+00
O    3.6974378188718071E+00    1.1001804285323802E+01    1.0477725844743071E+01
O    8.6286623150055863E+00    1.2957823215402420E+00    3.5251695536516423E+00
O    8.5642079923304522E+00    1.3160593977059931E+00    1.0438737583870587E+01
O    8.5915948142884435E+00    6.0985029626770544E+00    3.4879460044581889E+00
O    8.6177064874465810E+00    6.2276539798813975E+00    1.0376065334846089E+01
O    8.5568478996482060E+00    1.1066001412929104E+01    3.5649622124647484E+00
O    8.6097284862857446E+00    1.1087560365503640E+01    1.0401143925295186E+01
O    1.3468418037286087E+01    1.2937766397256287E+00    3.4728312409512871E+00
O    1.3443889029423705E+01    1.2871094166462254E+00    1.0408163463787306E+01
O    1.3490539800536784E+01    6.1075809316666518E+00    3.5010532671032668E+00
O    1.3557075497444369E+01    6.1905137277523217E+00    1.0429006128398456E+01
O    1.3540263678194416E+01    1.1116633171278814E+01    3.4216552987081497E+00
O    1.3467328196234627E+01    1.1076575964019456E+01    1.0447887567088403E+01
O    1.1785051004367206E+00    1.2109700507786303E+00    3.4363231895185056E+00
O    1.2231740274461542E+00    1.2437473962014551E+00    1.0431451233838590E+01
O    1.1903590142894247E+00    6.1327802620997485E+00    3.4211578693426263E+00
O    1.1949244420923801E+00    6.1423807406489832E+00    1.0463719225393900E+01
O    1.2776652023412916E+00    1.1084368437381691E+01    3.4857077578784343E+00
O    1.1653309661611959E+00    1.1078741650902883E+01    1.0401233190599159E+01
O    6.0948559038870060E+00    1.2591223088037014E+00    3.4869077875003662E+00
O    6.1328425515696177E+00    1.2411374722527411E+00    1.0436329406467738E+01
O    6.0595169839893002E+00    6.1112966188381117E+00    3.4270557202029361E+00
O    6.1982153474652284E+00    6.1006529761819426E+00    1.0449190962922232E+01
O    6.1201448574270980E+00    1.1105605623249710E+01    3.4692717950308696E+00
O    6.1362634298624945E+00    1.1068665237077306E+01    1.0459361803136213E+01
O    1.1034600265789621E+01    1.2381458323944998E+00    3.4269588978907848E+00
O    1.1003106572997398E+01    1.1896881996924373E+00    1.0348287961596704E+01
O    1.0981261773477877E+01    6.1325270837714836E+00    3.4516446554187330E+00
O    1.1060725734619144E+01    6.1293905889968157E+00    1.0445715434895011E+01
O    1.1036764517865924E+01    1.1111408815021163E+01    3.5331285656642053E+00
O    1.1000561877317855E+01    1.1072917078855236E+01    1.0452074301488171E+01
O    1.2462074816315467E+00    3.6795476575495556E+00    1.3882227610848032E+01
O    1.2504376379203914E+00    3.7495950380167686E+00    6.9749569473507931E+00
O    1.1876041231691778E+00    8.5549573886983001E+00    1.3770741150736898E+01
O    1.3073587988043405E+00    8.6719078591839907E+00    6.9288752200634018E+00
O    1.1651788715140514E+00    1.3406983246065391E+01    1.3877240675739616E+01
O    1.2771327776109727E+00    1.3569761978243037E+01    7.0053107096613081E+00
O    6.2055393322139487E+00    3.7128481520448697E+00    3.7992178561926958E-02
O    6.1083739502755554E+00    3.7725664384296462E+00    6.8862971630358825E+00
O    6.1474071356295790E+00    8.5885840138365062E+00    1.0649537000966290E-02
O    6.2198049813863507E+00    8.6547868286787910E+00    6.9359262331906208E+00
O    6.1326294818618328E+00    1.3508120460338327E+01    1.3839977066154658E+01
O    6.1205362612907326E+00    1.3482273044823076E+01    6.9813312342001881E+00
O    1.1071151665984406E+01    3.7553169773552488E+00    1.3809222796440313E+01
O    1.1030579126428295E+01    3.5872737952925386E+00    6.8876343204850334E+00
O    1.1077196393672251E+01    8.6289983024650834E+00    5.8042586806926359E-02
O    1.1045556930844526E+01    8.5546703297247078E+00    6.8994005574102184E+00
O    1.0972068372427328E+01    1.3502870951025269E+01    4.7661071942046995E-03
O    1.1033663867262300E+01    1.3473746469649033E+01    6.9151621947852293E+00
O    3.7132786010301824E+00    3.6334962630706915E+00    9.1205506531152510E-03
O    3.6403609083976569E+00    3.6814232665357118E+00    6.8911164950853969E+00
O    3.6901374882741060E+00    8.6116987420364772E+00    2.5987001326467224E-02
O    3.7040672709780278E+00    8.5760730509247356E+00    6.9413429096404160E+00
O    3.6882252067705799E+00    1.3528612017450445E+01    9.1410612507440113E-03
O    3.7464904096040823E+00    1.3518436720765308E+01    6.9777204179147914E+00
O    8.6264387987771070E+00    3.6899632829436184E+00    1.3838199418333133E+01
O    8.5415063480179256E+00    3.7062471023446388E+00    6.9645695357981285E+00
O    8.6213136508564823E+00    8.6166165654507516E+00    1.0669107228617625E-01
O    8.6290979873774010E+00    8.5450490470750164E+00    6.9172183056226881E+00
O    8.5293672482641565E+00    1.3487002385605670E+01    7.3879918853585358E-02
O    8.6949487312489957E+00    1.3443060530920640E+01    6.8585912589197555E+00
O    1.3517219941858912E+01    3.7132066057062869E+00    1.3840469484490237E+01
O    1.3473443227908238E+01    3.6739057664628327E+00    6.9540629423822358E+00
O    1.3484775680722819E+01    8.6147573089693310E+00    1.3800277984848988E+01
O    1.3602486459357674E+01    8.5808119073908458E+00    6.9633477031015651E+00
O    1.3484219064542252E+01    1.3482051122626682E+01    6.7388313510202261E-02
O    1.3542980292187945E+01    1.3537336718249726E+01    6.9833128610365778E+00
O    1.1705161412473899E+00    3.6231602579099418E+00    3.4342589231003045E+00
O    1.2857003298730834E+00    3.6286743339167846E+00    1.0353138162607049E+01
O    1.2451864821715140E+00    8.6409953400236930E+00    3.3901342122023510E+00
O    1.2032849402500796E+00    8.6001108442886824E+00    1.0461357246872936E+01
O    1.2840417581351782E+00    1.3519862900848477E+01    3.4371746268807706E+00
O    1.1942744630597171E+00    1.3527369880130898E+01    1.0487153405833018E+01
O    6.1887077248782285E+00    3.7022707637018688E+00    3.4523305720485555E+00
O    6.1117429172777040E+00    3.6606538193669134E+00    1.0411856015155163E+01
O    6.1443903704092255E+00    8.6050639489985805E+00    3.5870974917382368E+00
O    6.1258441255993956E+00    8.6081995775348101E+00    1.0436631089839429E+01
O    6.1985302252979180E+00    1.3560119306957077E+01    3.4753556482080032E+00
O    6.0657855743799747E+00    1.3479805215973885E+01    1.0447586385464419E+01
O    1.1013782537100701E+01    3.6748600353267555E+00    3.4696851456320457E+00
O    1.1021112460031526E+01    3.6738284629219149E+00    1.0348211793827065E+01
O    1.1091891610541902E+01    8.5732393929829236E+00    3.4327794254969621E+00
O    1.1020051403995884E+01    8.5932390685547642E+00    1.0305351348858169E+01
O    1.1112516009176808E+01    1.3518865350457114E+01    3.4880734718588964E+00
O    1.1057821831234021E+01    1.3492096097337800E+01    1.0301418543075078E+01
O    3.7289884958321453E+00    3.6680415687278707E+00    3.4892739255164744E+00
O    3.7109787794553228E+00    3.6183535215254898E+00    1.0479435482174781E+01
O    3.7255360309764738E+00    8.5233855929057007E+00    3.5088167265152155E+00
O    3.7078222125522191E+00    8.5458708235022804E+00    1.0350327034045261E+01
O    3.7988771391738712E+00    1.3470033959222176E+01    3.5511896033720940E+00
O    3.6674418944626881E+00    1.3503952886219384E+01    1.0432099934369205E+01
O    8.6330311071245198E+00    3.6568775136554192E+00    3.3841269130287359E+00
O    8.5748766953562754E+00    3.7263140068532739E+00    1.0393564851395388E+01
O    8.6642565591076188E+00    8.5615879638763417E+00    3.4856751614732464E+00
O    8.6271120245775084E+00    8.5974454591160541E+00    1.0433651000486375E+01
O    8.6744881627139581E+00    1.3499300456172316E+01    3.4917157562941230E+00
O    8.5839764722949283E+00    1.3521262373461440E+01    1.0335049357092402E+01
O    1.3542587647536074E+01    3.6658836049008250E+00    3.4033278465230752E+00
O    1.3514716453484661E+01    3.7342929506597509E+00    1.0393496969227359E+01
O    1.3571826425156088E+01    8.5899661949436421E+00    3.5689556231823367E+00
O    1.3561818740461371E+01    8.5515829030072918E+00    1.0345087878648725E+01
O    1.3546504428697679E+01    1.3497899849576369E+01    3.4596125603827468E+00
O    1.3560299391423301E+01    1.3511994612825996E+01    1.0386028879236799E+01
O    3.6321000796578100E+00    1.2101370572025136E+00    1.0465129257219576E-02
O    3.7015308117077512E+00    1.2146805474333167E+00    6.9247345824998323E+00
O    3.6830029389516592E+00    6.0663305600112283E+00    1.3840525368864872E+01
O    3.7029831222649592E+00    6.1552938227860716E+00    6.9036276549422793E+00
O    3.6310929492146693E+00    1.1034898491565459E+01    4.7905363320226962E-02
O    3.6782180431703182E+00    1.1011921000822865E+01    7.0575825821472939E+00
O    8.5853513576768634E+00    1.2080209253922070E+00    1.3830077395608498E+01
O    8.6829936070724134E+00    1.2446344103865399E+00    6.8318045952523638E+00
O    8.6448057211615996E+00    6.1566752516478340E+00    1.1162695872795707E-02
O    8.5731582226946461E+00    6.1067337031363218E+00    6.9945287110731620E+00
O    8.6362338182747767E+00    1.1028725050689372E+01    6.7657063989025101E-02
O    8.5878722470849933E+00    1.1003881225832423E+01    7.0148099363492049E+00
O    1.3496792089031072E+01    1.2882643982341160E+00   -1.0608090754497001E-03
O    1.3550060214408910E+01    1.2177844988836846E+00    6.9278819474261555E+00
O    1.3502269007609893E+01    6.1958742847621675E+00    1.3831571844229442E+01
O    1.3523393449098213E+01    6.1108861427540413E+00    6.9087250778268556E+00
O    1.3548811522500129E+01    1.1017498021165958E+01    6.9186262926746985E-03
O    1.3508123734395056E+01    1.1023452538275940E+01    6.9821014639415129E+00
O    1.1791839648051614E+00    1.1718324596382839E+00   -4.0956046566756020E-03
O    1.2018725478937631E+00    1.2534690949166456E+00    6.9091114746282072E+00
O    1.1761909473830936E+00    6.1035764757040640E+00    1.3820633323106421E+01
O    1.2420658837725012E+00    6.1844963437707827E+00    6.8825043253720946E+00
O    1.1993417429350286E+00    1.0989097694253857E+01    2.2309476275361666E-02
O    1.1763958891908595E+00    1.1137063865080444E+01    6.9890736742511823E+00
O    6.1100700795770093E+00    1.2163944503001789E+00    2.0272806576619978E-02
O    6.1895113968263864E+00    1.1969839469421049E+00    6.8924992324035506E+00
O    6.1798003722815800E+00    6.0892203639147402E+00    7.5285159422753892E-02
O    6.0976524112908868E+00    6.2144868548082144E+00    6.9856697804045469E+00
O    6.0788962200292733E+00    1.0969192606864373E+01    1.3856903281925991E+01
O    6.1094119015015949E+00    1.1043052404492357E+01    6.9153190694964843E+00
O    1.0975725110671851E+01    1.2785771554087728E+00    1.3837983168934846E+01
O    1.1097940185959834E+01    1.2016580315777479E+00    6.9497696068439581E+00
O    1.1057886575123216E+01    6.1929041393439999E+00    1.3866053710928716E+01
O    1.0930563484617483E+01    6.0492642095387241E+00    6.9562884667014382E+00
O    1.1073143062034498E+01    1.1018853504693180E+01    1.2626048460762027E-02
O    1.1087433040335274E+01    1.1045460433595865E+01    6.9992609587291286E+00
Si    1.4720366202490423E+01    1.4721780602050565E+01    1.3849175304060529E+01
Si    2.2977820354750978E-02    1.4710639665279865E+01    7.0010134910439410E+00
Si    1.4691549654509911E+01    4.9267569443665522E+00    1.3858500996975883E+01
Si    1.4711783102552108E+01    4.8770077932518028E+00    6.8923222022458104E+00
Si    1.4651347561235616E+01    9.8183939049311828E+00    1.3851612974140430E+01
Si    2.8028285839101642E-02    9.8538403917077098E+00    7.0112972659387207E+00
Si    4.8719421582064841E+00    1.1702747779396845E-02    1.3852240922944622E+01
Si    4.9187091080393532E+00    4.0158764902783292E-02    6.9456418978332035E+00
Si    4.9702057872718912E+00    4.8662161492129483E+00    1.8937226561065241E-02
Si    4.9131155095850838E+00    4.9451885304824383E+00    6.9207614926953775E+00
Si    4.9106401551237981E+00    9.8022439673664827E+00    5.4912124774118151E-02
Si    4.8697442013005681E+00    9.7998268283504970E+00    6.9999650477843831E+00
Si    9.8265392757094130E+00    2.0361794147687282E-02    1.3878863309075554E+01
Si    9.8204406681813872E+00    1.4706128073216410E+01    6.8856475823527052E+00
Si    9.8843026564320979E+00    4.9171088777492171E+00    3.4883457007205042E-02
Si    9.8068824150782081E+00    4.8682839501862931E+00    6.9149256993141837E+00
Si    9.8443048842321392E+00    9.7824784536240070E+00    1.3859926691483194E+01
Si    9.7984373605916755E+00    9.7872332952604584E+00    6.9135249898995070E+00
Si    2.4031890687593225E+00    2.4218130372930204E+00    2.5903184126503609E-02
Si    2.4473264097201128E+00    2.4462655639481663E+00    6.9577705019022940E+00
Si    2.4640115281138990E+00    7.3624317564814428E+00    9.5640152910932419E-03
Si    2.4536151338839378E+00    7.3941372730932677E+00    6.9584207232468964E+00
Si    2.3880342481103600E+00    1.2181289349835652E+01    9.0183725871165708E-03
Si    2.4751516802856361E+00    1.2308832916414493E+01    6.9511121563737577E+00
Si    7.3545723605276772E+00    2.5057310719576673E+00    1.3876874416997598E+01
Si    7.3218283289816144E+00    2.4730122573457907E+00    6.9342727671715281E+00
Si    7.3880548944100779E+00    7.3418000893729154E+00   -5.7567813305602230E-04
Si    7.3168588602458815E+00    7.3811424510468164E+00    6.9230467038198427E+00
Si    7.3532301720173230E+00    1.2257856041196295E+01    2.5859292313929371E-02
Si    7.2662485772604697E+00    1.2253144250425679E+01    6.9350406560680300E+00
Si    1.2231100608001919E+01    2.5127609509953523E+00    1.3869525263141606E+01
Si    1.2239338570369414E+01    2.4472942826267006E+00    6.9304031036832852E+00
Si    1.2257970074980607E+01    7.3474712395339079E+00    1.3838822944094971E+01
Si    1.2194082723081141E+01    7.3246731539988774E+00    6.8988955613167606E+00
Si    1.2253126554844528E+01    1.2340236323913606E+01    1.3846329906648052E+01
Si    1.2302332482531055E+01    1.2311746525725667E+01    6.9904202643602202E+00
Si    3.5934698675612060E-02    1.4711987797862010E+01    3.4857249827903587E+00
Si    2.8970319988361089E-02    1.4711680584272081E+01    1.0457836145105894E+01
Si    1.5147482996552310E-02    4.9123545172216154E+00    3.4295486179307577E+00
Si    3.1525592189441544E-02    4.9207421396759408E+00    1.0424508330723238E+01
Si    9.5909820555673529E-04    9.8281425816232826E+00    3.4417780438912038E+00
Si    1.4691956602064641E+01    9.8004253646328330E+00    1.0398567669358792E+01
Si    4.9279142153168936E+00    1.4054932810661525E-02    3.4667203198886627E+00
Si    4.9049293446607578E+00    1.2623813075587664E-02    1.0437951524822115E+01
Si    4.8862315195798507E+00    4.9246059901102788E+00    3.4657620569498833E+00
Si    4.9672327850292577E+00    4.9165295057626892E+00    1.0453776647708445E+01
Si    4.9153942516761111E+00    9.8535878322560855E+00    3.4976636511054489E+00
Si    4.9394518893149426E+00    9.8061968782118640E+00    1.0472824948618799E+01
Si    9.9018429041552434E+00    1.4692210706288105E+01    3.5121161715979321E+00
Si    9.7885458842761501E+00    1.4729645411458264E+01    1.0404341344648477E+01
Si    9.8562798339418194E+00    4.8849500924534857E+00    3.4601907488090387E+00
Si    9.8645992718599853E+00    4.8749824492118288E+00    1.0397481491775109E+01
Si    9.8495645682744257E+00    9.8434859899240905E+00    3.4851863145604791E+00
Si    9.7993378743590700E+00    9.7422297681034902E+00    1.0359895150519828E+01
Si    2.4577304831222300E+00    2.4326684230207434E+00    3.4259933273790515E+00
Si    2.4280163674568502E+00    2.4214375589690373E+00    1.0459266227712433E+01
Si    2.4895830069543745E+00    7.4106749515279278E+00    3.4800520086126632E+00
Si    2.4879013204505265E+00    7.3870170714847401E+00    1.0458197519473602E+01
Si    2.4683531334244480E+00    1.2243474691667089E+01    3.5109661437791595E+00
Si    2.4749396764350879E+00    1.2259577888454288E+01    1.0439458298615689E+01
Si    7.3534929977652519E+00    2.4149260611401764E+00    3.4267711708563300E+00
Si    7.3906821113948995E+00    2.4639564201133903E+00    1.0400857688103031E+01
Si    7.4493983620145219E+00    7.3768228050369862E+00    3.5151800058736460E+00
Si    7.3654439272847094E+00    7.3552972851716802E+00    1.0384935912768972E+01
Si    7.3691442908393476E+00    1.2277550290166516E+01    3.4655236540652594E+00
Si    7.3340273611822830E+00    1.2215616567221952E+01    1.0392220825625715E+01
Si    1.2261446750054963E+01    2.4321961891300052E+00    3.4149452640184714E+00
Si    1.2318743170550089E+01    2.4934690584180079E+00    1.0357186896387397E+01
Si    1.2287097121137062E+01    7.3488970855627107E+00    3.4406029872936807E+00
Si    1.2320671186352623E+01    7.3690912670458060E+00    1.0423406864205777E+01
Si    1.2308202956196149E+01    1.2323211917582089E+01    3.4792019608470159E+00
Si    1.2288785747806234E+01    1.2248411908006485E+01    1.0402901399482108E+01
Ca    2.4214071729203290E+00    1.4594330063883019E+01    1.7480287680568538E+00
Ca    2.4469522588609078E+00    4.6576493211223688E-02    8.6930026801626443E+00
Ca    2.4350206286377358E+00    4.8501447352979064E+00    1.7316098824849815E+00