
&GLOBAL
       PROJECT AIM
       RUN_TYPE MD
       PRINT_LEVEL DEBUG
&END GLOBAL



&FORCE_EVAL
  METHOD FIST
  &MM
   &FORCEFIELD
     &SPLINE
       EMAX_SPLINE 1000.0
	RCUT_NB 6.8793
     &END SPLINE


! ======== PIMAIM PARAMETER ==========!

     &NONBONDED

       &BMHFTD
          atoms O O
          A  1068.0
          B  5.0376
          C  0.9743
          D  5.2469
          BD 2.7184
        &END BMHFTD
        &BMHFTD
          atoms Si O
          A 43.2770
          B 2.9136
          C 0.0479
	  D 0.1556
	  BD 0.0
        &END BMHFTD
        &BMHFTD
          atoms Ca O
          A 40.0582
          B 2.8413
          C 0.0479
          D 0.1556
	  BD 0.0
	&END BMHFTD

	&BMHFTD
          atoms Si Si
          A 0.0
	  B 2.8170
          C 0.0047
          D 0.0053
          BD 1889728.5785
        &END BMHFTD
        &BMHFTD
          atoms Si Ca
          A 0.0
          B 2.8170
          C 0.0047
          D 0.0053
          BD 1889728.5785
        &END BMHFTD
        &BMHFTD
          atoms Ca Ca
          A 0.0
          B 2.8170
          C 0.0047
          D 0.0053
    	  BD 1889728.5785
        &END BMHFTD
     &END NONBONDED

     &CHARGE
       atom O 
       CHARGE -2.0
     &END CHARGE
     &CHARGE
       atom Si
       CHARGE 4.0
     &END CHARGE
     &CHARGE
       atom Ca
       CHARGE 2.0
     &END CHARGE

!:::::::START DIPOLE ::::::::
     &DIPOLE
       ATOM O
       APOL 1.299150166912089
       &DAMPING
          TYPE Tang-Toennies
          ATOM Si
          BIJ 4.015668032381992
          ORDER 4
          CIJ 1.5933
       &END DAMPING
       &DAMPING
          TYPE Tang-Toennies
          ATOM Ca
          BIJ 3.457775435124017
          ORDER 4
          CIJ 2.35919526229
       &END DAMPING
     &END DIPOLE
     &DIPOLE
       atom Ca
       APOL 0.5186409672943927
       &DAMPING
          TYPE Tang-Toennies
          ATOM O
          BIJ 6.613550738353049
          ORDER 4
          CIJ 1.003717874670000
       &END DAMPING
       &DAMPING
          TYPE Tang-Toennies
          ATOM Si
          BIJ 6.613550738353049
          ORDER 4
          CIJ 1.003717874670000
       &END DAMPING
     &END DIPOLE

!:::::::START QUADRUPOLE ::::::::

     &QUADRUPOLE
	ATOM O
	CPOL [angstrom^5] 0.4777179127647640
     &END QUADRUPOLE
     &QUADRUPOLE
        ATOM Ca
        CPOL [angstrom^5]  0.2066049444100642
     &END QUADRUPOLE

! ::::::END MULTIPOLES ::::::::
   &END FORCEFIELD

   
   &POISSON
     &EWALD
       EWALD_TYPE EWALD
	ALPHA 0.4904453
       GMAX 11
       O_SPLINE 6
       &MULTIPOLES T
         MAX_MULTIPOLE_EXPANSION QUADRUPOLE

#         POL_SCF CONJUGATE_GRADIENT
         POL_SCF SELF_CONSISTENT 

         EPS_POL 1.0e-6
         MAX_IPOL_ITER 100
       &END MULTIPOLES
     &END EWALD
    &END POISSON
  &END MM
  &PRINT
   &FORCES
   &END
  &END PRINT
  &SUBSYS
    &CELL
      ABC 14.711 14.711 14.711
    &END CELL
    &KIND O
      ELEMENT O
      MASS    15.9994
    &END KIND
    &KIND Si
      ELEMENT Si
      MASS    28.0855
    &END KIND
    &KIND Ca
      ELEMENT Ca
      MASS    40.078
    &END KIND

    &COORD
      #UNIT bohr
      @INCLUDE coord_ang.xyz
    &END COORD

 &END SUBSYS
&END FORCE_EVAL

&MOTION
  &MD
    TIMESTEP 1
    STEPS 0 
    ENSEMBLE NVT
    &THERMOSTAT
      REGION GLOBAL
      &NOSE
         LENGTH 3
         TIMECON 1000.0
         YOSHIDA 3
         MTS 2
      &END NOSE
    &END THERMOSTAT
    TEMPERATURE 300.0
  &END MD

  &PRINT
    &FORCES
       FORMAT XMOL
      &EACH
        MD   1
       &END EACH
    &END FORCES
  &END PRINT
&END MOTION
