@SET CELLDM 14.4917369190
@SET POT_RCUT 7.2 
@SET SAMPLE BSi
@SET MD_EACH 100
@SET MD_RESTART 1000

 &GLOBAL
   BLACS_GRID  SQUARE
   PREFERRED_FFT_LIBRARY  FFTW
   PRINT_LEVEL HIGH
   PROGRAM_NAME CP2K
   PROJECT_NAME ${SAMPLE}
   RUN_TYPE MD
 &END GLOBAL

 &MOTION

   &MD
     ENSEMBLE  NVE
     STEPS        0
     TIMESTEP     0.5
     TEMPERATURE  0.0
   &END MD

&END MOTION

&FORCE_EVAL

 METHOD FIST
 STRESS_TENSOR ANALYTICAL

