@SET CELLDM 14.4917369190
@SET POT_RCUT 7.2 
@SET SAMPLE BSi
@SET MD_EACH 100
@SET MD_RESTART 1000

 &GLOBAL
   BLACS_GRID  SQUARE
   PREFERRED_FFT_LIBRARY  FFTW
   PRINT_LEVEL HIGH
   PROGRAM_NAME CP2K
   PROJECT_NAME ${SAMPLE}
   RUN_TYPE MD
 &END GLOBAL

 &MOTION

   &MD
     ENSEMBLE  NVE
     STEPS        0
     TIMESTEP     0.5
     TEMPERATURE  0.0
   &END MD

&END MOTION

&FORCE_EVAL

 METHOD FIST
 STRESS_TENSOR ANALYTICAL

&MM
&FORCEFIELD
IGNORE_MISSING_CRITICAL_PARAMS T
SHIFT_CUTOFF F
@INCLUDE 'BMHFTD_CP2K.POT'
@INCLUDE 'IONS_CP2K.POT'
&END FORCEFIELD
@INCLUDE 'COUL_CP2K.POT'
&END MM
   &SUBSYS

  &CELL

        A [angstrom] ${CELLDM}  0.00000000000  0.00000000000
        B [angstrom]  0.00000000000 ${CELLDM}  0.00000000000
        C [angstrom]  0.00000000000  0.00000000000 ${CELLDM}

  &END CELL

  &COORD
    SCALED F 
  O         5.8580174316        7.3450301884        9.7841830137
  O         5.1983004498       12.0177954070        0.7360800465
  O         2.8760484150        9.3965362450        2.4815643773
  O         0.4191949690       10.2665750698       13.9947492978
  O         8.1263526497       14.2338422199       11.2656336403
  O        13.7097648994        5.9972784201       15.1603599317
  O         8.2034733566        1.8098725947        0.5399128783
  O         3.6579735277        7.9109427425        8.5827851704
  O         8.9116269671        9.5359535280        0.8733302682
  O        12.3811571258        4.1936713431       13.7372294335
  O         2.4795151823       11.4957481610       14.4752604867
  O         5.8202550328        8.8470402517        7.7849264666
  O        13.8658356040       -0.4181593275       13.3110373431
  O         7.7174374294        1.7953903442       12.6027890785
  O        12.8921108770        9.5023103744        9.6470889521
  O         6.8505770766       11.7857563174        2.7814620494
  O        10.3873474890       12.7762411432       12.0635896728
  O         9.0113705032        0.5082416644        2.7250912578
  O        13.0115780678        7.5530269399        2.5978712970
  O        14.0259382430       12.9870645654        3.8095102518
  O         9.4853084416        7.4562533563       12.3177164673
  O        13.9180050233        5.5220243447        9.0475997970
  O        10.3573464320       11.4725897714        1.9720436370
  O         2.5571846160       13.8472270390        7.7008341532
  O        14.7627779757       12.6850732853        8.6458168977
  O         0.5503914827       10.4915058136       10.4970536743
  O         3.7234314070        5.6600544189        4.5785667834
  O         5.0197572159        7.4958859593        3.3836087816
  O        10.8742200921       10.4793330741        4.0415437484
  O         7.9129542696        4.1158185590        6.0192899093
  O        12.5629781634       12.0035081099        9.1737761925
  O         8.9814437666        7.1341264036        1.8974921871
  O         7.3486752801        4.1044288477       13.8730888027
  O         4.5979780027       13.9131740936        4.5101218477
  O         5.3998935150        4.4513900324       12.0004365997
  O         7.7366370059        5.5924525444       11.9593396761
  O         0.4177563175       13.6934902576        6.1807941616
  O        13.2395015698        4.5798086652        6.1921719887
  O        11.2589538883        6.3263352743        3.4654095556
  O         9.2093101854        3.6136907298        8.0602338633
  O         8.0787392168       11.9081718262        0.5613545914
  O         4.1831649376       10.4148236009       13.1317271963
  O        14.4559676552        6.7133100648        7.1621908918
  O         3.4205307319       -0.0870814254        2.0969935872
  O         6.8440126344        3.8351312069        3.6074983699
  O         4.0826016938       10.9972033709       10.5452710947
  O        10.9982027052        0.2397323237        7.9678282748
  O         6.6904078826        1.7602977542        2.5556447986
  O        11.0109820536       10.7888345657       10.8974080072
  O        12.6245810472       11.2274403839        2.5120191114
  O         8.4244575511       11.6399487755       10.9702061860
  O         4.6796055948        3.3650434076        9.7521188581
  O        12.5015959331       10.5999504958       12.8289944024
  O         6.1986937317       10.0803280584       11.4797202497
  O         4.9554995632       13.4929153713        6.9782198615
  O        12.0765344252        2.9705794570        4.9359935110
  O         2.2654232124       10.3697294941        4.8373662663
  O        11.2365811075        3.4685478272        7.0035931925
  O         4.2764963646       12.9526710864       13.2191319903
  O        -1.3098214316       14.3358887310        8.8284896169
  O         7.1359936587       13.9614032373        5.6067758388
  O         5.9399041204        9.4984322880        3.7809091028
  O         2.9097093967        2.2189278000        1.1602948106
  O         6.9191176120       14.0853113239        1.3237879431
  O         3.5947748151        4.7487474328        0.7007098040
  O         2.7160000407        4.0393465938       11.6049777568
  O        12.9719091333        2.5385002418        2.5841967498
  O        14.2150142076        3.2586604972        0.7310430053
  O         1.3675665196       11.8333336748       12.5135588541
  O         6.2794127476        5.9419690215        5.0101810539
  O         0.5328955279        4.7098092368       13.3658386830
  O        10.4199193946       11.0495257238       13.8694996189
  O         5.9401493784       11.7184045824        5.1402469511
  O         9.8232942612        3.0578951447       13.5149564352
  O         4.3171573547       13.1063447249        9.5066295767
  O        13.2586329541        6.7476026210        4.7477288985
  O         1.5571153249        0.1367550703        0.2417374675
  O        10.3492141408        5.5787356986        7.6111865518
  O        10.0244561670        9.4390758162        6.3074769681
  O         9.6298757760       14.5940039158        4.8882564782
  O        14.3071230523       13.2304684770       11.1076405357
  O         8.7940914933        5.5537991124        4.0036589864
  O         6.6522479220        2.9448070452        8.0569048265
  O        14.1516043991        8.7344609056       11.9315799088
  O        12.0859896065        1.6771366250        9.5036400567
  O         5.7147298307        0.1096105988       12.3354800225
  O         7.8011949377        9.2434561314        9.6205288048
  O         9.9633115327       13.4519398283        9.5787692554
  O         3.9914749097        8.5503527249       11.1726710911
  O         1.8381094391       -0.2497861887        4.1032404985
  O         4.0003688428        0.5843380441       13.9585428178
  O         3.4251788579        7.3609792518        0.8583070004
  O        10.5566901964        8.0308104548        8.2246648143
  O        13.7680717691        0.9095533536        4.4581760495
  O         6.6775179582        8.3645193588        1.9271719226
  O         0.8332164909       10.9518373030        2.6893783913
  O         8.2315076268       10.3375955211        4.6038979417
  O         9.5505548255        8.1986625280        4.0874645020
  O         3.4539022449        9.9868728888        6.8187595726
  O         0.7763213348        8.0978114336        1.2859688261
  O         3.0995094479       12.1182932974        3.1935455509
  O         5.3833775640        6.0524186816       13.7793189716
  O         2.6959607308        6.0617521914       13.1001598692
  O        10.8802124985       10.3562005253        8.1264531348
  O         4.3596007118        7.6509470676        6.0410828989
  O         0.8138481827        5.3725255647       10.9136147348
  O         8.9658780946       13.8503966584        7.4602498860
  O        10.5001306631        5.1212028467       12.1301489298
  O         4.5591060090        1.0667994253        8.4738787443
  O         3.9356547089        5.9110959572       10.4340097048
  O         2.2270685270       12.4081612703       10.2056907199
  O         8.2571804155        1.6369613505        6.4233994234
  O         1.8305919235       11.6304943574        6.7295985961
  O         8.3945284632        9.5416341228       12.3500964215
  O        14.1796558462       12.8976885113        1.1680026320
  O         2.0317678143        6.7799538279        3.0610372213
  O         9.5146817245        6.2227931184        9.9904716713
  O         0.2323251927        7.7490424277        9.3310578144
  O        13.7627769437        1.0316366128        1.0724935545
  O        11.2475696464        0.9705821986        3.4279109012
  O         1.0135446847        5.3867342091        5.0469087744
  O         2.4765995985        4.2176380175        2.8989922903
  O        13.1686400442        8.4745165352       -0.0142953412
  O        13.6447310501        1.0056094058       11.4716273527
  O        13.9607533450        3.4729360730       10.2323404541
  O        11.8464099568        2.9206681263       11.6762285967
  O         6.4342175036        1.4694072827       10.2546229083
  O         8.1063647930        7.3373188910        8.1739173632
  O         4.8720446542        3.1985811706        2.4390430352
  O         7.8760879178        7.8450181980       13.9545927165
 Si         4.0771672367       14.0681262402        8.1862216715
 Si         2.9506615661        0.6959539751        0.7141456890
 Si        14.1674831513        5.8715936752        5.7815419391
 Si         5.5769128364        2.2316505125        9.0629326188
 Si        14.2738452289        9.0215731633       10.3539791110
 Si         6.9945650247        0.8007107366       11.6029112776
 Si         9.2057425446       13.0905752674       10.9346929313
 Si         9.7056225638        9.6557247740        4.7505727983
 Si         4.2318384280        7.3770874088       10.0593551139
 Si         4.8832576497        6.7176353580        4.7905699222
 Si         7.9724175899        2.9963110377        7.1888884945
 Si         9.6929667128        6.7626241354        3.3385415973
 Si         9.4799974901       11.0405953402        0.6733384332
 Si         4.0159437639       11.6766383355       14.1279163866
 Si         2.2759843421        5.4715750582        3.9677561162
 Si         9.6169259180        6.7283966495        8.4467391613
 Si         5.6673206490       13.2795296493        5.5268231294
 Si         3.2886816536       13.6927065887        3.5675306099
 Si        14.0479406682       11.9532304680        2.5095903619
 Si         3.8117310512        6.1097737161       -0.1206556300
 Si         6.8765996219        8.1747338589        8.7875441878
 Si         9.2834044480        6.0576734245       11.6112037607
 Si        12.9610993043        2.3018928940       10.6945950407
 Si         2.2844604278       10.7349969988        3.3027963447
 Si        13.7493996592        7.6087750167        1.1760532739
 Si         1.2477661350       12.9616855917        7.4068498252
 Si         1.6652138761        5.0950608329       12.2769329600
 Si         4.1864623624        4.3582116655       10.9426023021
 Si        12.4885325367        1.8647378974        3.9126076209
 Si        14.4661319383       -0.2566768421        0.3283344405
 Si        11.1089817667       11.3571685435       12.4471010807
 Si         8.0859762073        8.1931077425        1.0611523853
 Si         6.4922203382        5.1602683265       12.9591316199
 Si         0.9127210115       11.9703349952       10.9843366662
 Si         2.3185157665        7.9546876838        1.9075529801
 Si         8.2844476630        2.7250457139       13.7959190762
 Si         4.2615166377        8.6654473771        7.2826093715
 Si         0.2505959777       14.1168340668        4.6345396129
 Si         4.6333749827        9.9655834710       11.6319211043
 Si         7.7194418886       10.1717389687       11.0027523592
 Si        11.0706345773        3.7728128418       12.7874050773
 Si         7.4982266854        4.8764541587        4.6492917317
 Si         6.7065278780       12.4365779192        1.3054620673
 Si        13.7993336715        4.5390517428       14.3912855941
 Si         7.7420243678        0.8751650893        1.7857046363
 Si         3.4443968421        3.5960911188        1.7968954523
 Si        11.7328899412       10.6010864931        9.4964281026
 Si        13.6544423676        9.5128325505       13.2749238084
 Si         6.7759683814       10.8142359919        4.0504320331
 Si         8.4977905049       14.5912837402        6.0352882440
  B        14.4011474485        6.7129411058        8.5499155812
  B         2.5006091429       10.6867410313        6.1810187929
  B         4.6849311800       -0.2087502289       13.1397479732
  B        -0.0719701341        4.7620553691       10.0429335330
  B         5.7833405734        8.5013872004        2.9123934388
  B         8.6314784284        8.3702955166       12.9123336046
  B         9.9647552600       13.9509728060        8.3082808326
  B        13.9357418664       -0.2246495824       11.9373892234
  B         6.1262102873        2.9460245333        2.8813532065
  B        12.0739775724        0.5584815939        8.7977484250
  B        13.6423257973        2.3159964716        1.4670928967
  B         1.3846450792       11.2079224118       13.7008687495
  B         3.5943456339       12.1714975799       10.1165743067
  B        12.2311525522        3.6813797044        6.0842247364
  B        12.4838584454        6.8953293277        3.6646944769
  B        10.4147238572        9.2287360726        7.5370779235
  B        11.3110979412       11.0414410737        2.8597107508
  B        10.3365649430        4.2511366491        7.6387338504
  B        13.4522838991       12.9912480730        8.9758808670
  B        10.0028221278        0.5932250841        3.6370070936
  &END COORD

  &END SUBSYS

 &END FORCE_EVAL

