 # Version information for this restart file 
 # current date 2015-10-23 16:31:48.372
 # current working dir /home/filipe/dev/github/mdff/branches/PIM_quadrupole_tests/tests/cp2k
 # Program compiled at                              Sat Oct 11 19:03:13 UTC 2014
 # Program compiled on                                                     binet
 # Program compiled for                                      Linux-i686-gfortran
 # Source code revision number                                         svn:13632
 &GLOBAL
   PRINT_LEVEL  DEBUG
   PROJECT_NAME AIM
   RUN_TYPE  MD
 &END GLOBAL
 &MOTION
   &MD
     ENSEMBLE  NVT
     STEPS  1
     TIMESTEP     9.9999999999999989E-01
     STEP_START_VAL  1
     TIME_START_VAL     9.9999999999999989E-01
     ECONS_START_VAL    -3.9143342529759860E+02
     TEMPERATURE     3.0000000000000000E+02
     &THERMOSTAT
       REGION  GLOBAL
       &NOSE
         LENGTH  3
         YOSHIDA  3
         TIMECON     1.0000000000000001E+03
         MTS  2
         &COORD
               3.0479623024283254E-05   -1.7770397697162831E-05   -4.8368045373225669E-06
         &END COORD
         &VELOCITY
               7.3822196736401097E-07   -4.2983290072337775E-07   -1.2908730924519016E-07
         &END VELOCITY
         &MASS
               1.7487571273478644E+09    1.6237299232570699E+06    1.6237299232570699E+06
         &END MASS
         &FORCE
               6.1182692055086434E-11    1.8343534263473477E-12   -5.8491538217850616E-10
         &END FORCE
       &END NOSE
     &END THERMOSTAT
     &AVERAGES  T
       &RESTART_AVERAGES
         ITIMES_START  1
         AVECPU     7.4510000000003487E+00
         AVEHUGONIOT     0.0000000000000000E+00
         AVETEMP_BARO     0.0000000000000000E+00
         AVEPOT    -3.9199935791390118E+02
         AVEKIN     5.6509585310879729E-01
         AVETEMP     3.3137036963202263E+02
         AVEKIN_QM     0.0000000000000000E+00
         AVETEMP_QM     0.0000000000000000E+00
         AVEVOL     2.1484398205112971E+04
         AVECELL_A     2.7799761140880694E+01
         AVECELL_B     2.7799761140880694E+01
         AVECELL_C     2.7799761140880694E+01
         AVEALPHA     9.0000000000000000E+01
         AVEBETA     9.0000000000000000E+01
         AVEGAMMA     9.0000000000000000E+01
         AVE_ECONS     0.0000000000000000E+00
         AVE_PRESS     0.0000000000000000E+00
         AVE_PXX     0.0000000000000000E+00
       &END RESTART_AVERAGES
     &END AVERAGES
   &END MD
   &PRINT
     &FORCES  SILENT
       FORMAT  XMOL
       &EACH
         MD  1
       &END EACH
     &END FORCES
   &END PRINT
 &END MOTION
 &FORCE_EVAL
   METHOD  FIST
   &MM
     &FORCEFIELD
       &SPLINE
         RCUT_NB     6.8792999999999997E+00
         EMAX_SPLINE     1.0000000000000000E+03
       &END SPLINE
       &NONBONDED
         &BMHFTD
           ATOMS O O
           A     1.0680000000000000E+03
           B     5.0376000000000003E+00
           C     9.7429999999999994E-01
           D     5.2469000000000001E+00
           BD     2.7183999999999999E+00
         &END BMHFTD
         &BMHFTD
           ATOMS Si O
           A     4.3277000000000001E+01
           B     2.9136000000000002E+00
           C     4.7900000000000005E-02
           D     1.5559999999999999E-01
           BD     0.0000000000000000E+00
         &END BMHFTD
         &BMHFTD
           ATOMS Ca O
           A     4.0058199999999999E+01
           B     2.8412999999999999E+00
           C     4.7900000000000005E-02
           D     1.5559999999999999E-01
           BD     0.0000000000000000E+00
         &END BMHFTD
         &BMHFTD
           ATOMS Si Si
           A     0.0000000000000000E+00
           B     2.8170000000000002E+00
           C     4.7000000000000002E-03
           D     5.3000000000000000E-03
           BD     1.8897285785000001E+06
         &END BMHFTD
         &BMHFTD
           ATOMS Si Ca
           A     0.0000000000000000E+00
           B     2.8170000000000002E+00
           C     4.7000000000000002E-03
           D     5.3000000000000000E-03
           BD     1.8897285785000001E+06
         &END BMHFTD
         &BMHFTD
           ATOMS Ca Ca
           A     0.0000000000000000E+00
           B     2.8170000000000002E+00
           C     4.7000000000000002E-03
           D     5.3000000000000000E-03
           BD     1.8897285785000001E+06
         &END BMHFTD
       &END NONBONDED
       &CHARGE
         ATOM O
         CHARGE    -2.0000000000000000E+00
       &END CHARGE
       &CHARGE
         ATOM Si
         CHARGE     4.0000000000000000E+00
       &END CHARGE
       &CHARGE
         ATOM Ca
         CHARGE     2.0000000000000000E+00
       &END CHARGE
       &DIPOLE
         ATOM O
         APOL     1.2991501669120891E+00
         &DAMPING
           ATOM Si
           TYPE Tang-Toennies
           ORDER  4
           BIJ     4.0156680323819920E+00
           CIJ     1.5932999999999999E+00
         &END DAMPING
         &DAMPING
           ATOM Ca
           TYPE Tang-Toennies
           ORDER  4
           BIJ     3.4577754351240171E+00
           CIJ     2.3591952622900001E+00
         &END DAMPING
       &END DIPOLE
       &DIPOLE
         ATOM Ca
         APOL     5.1864096729439269E-01
         &DAMPING
           ATOM O
           TYPE Tang-Toennies
           ORDER  4
           BIJ     6.6135507383530490E+00
           CIJ     1.0037178746700000E+00
         &END DAMPING
         &DAMPING
           ATOM Si
           TYPE Tang-Toennies
           ORDER  4
           BIJ     6.6135507383530490E+00
           CIJ     1.0037178746700000E+00
         &END DAMPING
       &END DIPOLE
     &END FORCEFIELD
     &POISSON
       &EWALD
         EWALD_TYPE  EWALD
         ALPHA     4.9044529999999997E-01
         GMAX  11
         O_SPLINE  6
         &MULTIPOLES  T
           MAX_MULTIPOLE_EXPANSION  DIPOLE
           POL_SCF  SELF_CONSISTENT
           MAX_IPOL_ITER  100
           EPS_POL     9.9999999999999995E-07
         &END MULTIPOLES
       &END EWALD
     &END POISSON
   &END MM
   &SUBSYS
     &CELL
       A     1.4711000000000000E+01    0.0000000000000000E+00    0.0000000000000000E+00
       B     0.0000000000000000E+00    1.4711000000000000E+01    0.0000000000000000E+00
       C     0.0000000000000000E+00    0.0000000000000000E+00    1.4711000000000000E+01
       MULTIPLE_UNIT_CELL  1 1 1
     &END CELL
     &COORD
O    4.9507258911579873E-02    2.7781615079583744E+01    3.2776769299370736E+00
O    1.4249834901565353E-01    3.3209437101430268E-02    1.6361979308230271E+01
O    2.7718811709714601E+01    9.1518554741588112E+00    3.1666408016232088E+00
O    2.7797473255932076E+01    9.3746419688110869E+00    1.6377337569075952E+01
O    2.7752614044316633E+01    1.8455176986909972E+01    3.2126016731012523E+00
O    3.0620401704734852E-02    1.8721121874154445E+01    1.6549201846451538E+01
O    9.4165275480035771E+00    2.7784144305096710E+01    3.3556642694238747E+00
O    9.2159583259654436E+00    8.6503304154823740E-02    1.6380999586383240E+01
O    9.1876157843089210E+00    9.1358480368931172E+00    3.2595855371834523E+00
O    9.2774322763769579E+00    9.2374882999976649E+00    1.6349409285343036E+01
O    9.2730642814265796E+00    1.8532295944297459E+01    3.3605295860437687E+00
O    9.3626124544966185E+00    1.8560526125050718E+01    1.6334448065905359E+01
O    1.8493859364617503E+01    1.3313249699275445E-01    3.2862958557634174E+00
O    1.8472524462785564E+01    2.7784995467528777E+01    1.6331355743826109E+01
O    1.8617161915986301E+01    9.2844099293062321E+00    3.2444200249681128E+00
O    1.8589385059564250E+01    9.1380222691747708E+00    1.6412333432889692E+01
O    1.8605735825134552E+01    1.8624800193972781E+01    3.3733172342299635E+00
O    1.8509886334886968E+01    1.8517556032842517E+01    1.6390908943508276E+01
O    4.6296437186273085E+00    4.5692939225983071E+00    9.7985915169765718E+00
O    4.5458327017704487E+00    4.5566679971368611E+00    2.2980144828348710E+01
O    4.6740891138036309E+00    1.3998230755190653E+01    9.7840421794159198E+00
O    4.7845109649818189E+00    1.3865639816319376E+01    2.2987591581543445E+01
O    4.6396339784135110E+00    2.3319038536604552E+01    9.9067830816312288E+00
O    4.6262630094027557E+00    2.2933447471029837E+01    2.3011075139528888E+01
O    1.3780532814326030E+01    4.6637824514409436E+00    9.9158447789624411E+00
O    1.3857044365217698E+01    4.7182460006545117E+00    2.2963038628251269E+01
O    1.3913943444969727E+01    1.3784728958130021E+01    9.8607766950517650E+00
O    1.3926315553186166E+01    1.3897347937188730E+01    2.3098133252344009E+01
O    1.3908825056191915E+01    2.3191676518815768E+01    9.8811392416410211E+00
O    1.3885733739122639E+01    2.3048461805303091E+01    2.2918258029262763E+01
O    2.3240502762498917E+01    4.6581276829433236E+00    9.7880251685271187E+00
O    2.3073692266399799E+01    4.5188140166220769E+00    2.2962183408205387E+01
O    2.3108571173696618E+01    1.3728504387081440E+01    9.9070472091463806E+00
O    2.3100196594539344E+01    1.4053616070580462E+01    2.2822144450014079E+01
O    2.3369203761502146E+01    2.3260434683489390E+01    9.8546175285615423E+00
O    2.3212502334132697E+01    2.3391179818273667E+01    2.3003456518495035E+01
O    8.8292263098221704E-02    2.4977728295837005E-02    9.8449788122255573E+00
O    2.7699693768397669E+01    4.7915985908668912E-02    2.2955454440198025E+01
O    2.7719957186195870E+01    9.1181548205047758E+00    9.8022945127515388E+00
O    2.6302303843961381E-03    9.1844956531464668E+00    2.2912370869931959E+01
O    9.2533964053398504E-02    1.8640629697111823E+01    9.9583663051873543E+00
O    2.7590109237107178E+01    1.8565669487648258E+01    2.2856131644454639E+01
O    9.2053708742790690E+00    1.5285064692166664E-01    9.8334774687333635E+00
O    9.2583321500606424E+00    2.7772747441372498E+01    2.3035098463889796E+01
O    9.1982274656877099E+00    9.2706701434229544E+00    9.7957660567591205E+00
O    9.3094367825722646E+00    9.1836744632675291E+00    2.2917179299134009E+01
O    9.2546414132596233E+00    1.8610174476885820E+01    9.9685642958758471E+00
O    9.1932253228381633E+00    1.8410698525889014E+01    2.3028151792716251E+01
O    1.8678378964282995E+01    2.3705145573166032E-02    9.8423956094988547E+00
O    1.8547835474928494E+01    2.7742626515959071E+01    2.2950108813190017E+01
O    1.8420329172653251E+01    9.0884167016637196E+00    9.7885087465822078E+00
O    1.8591059682530492E+01    9.3376784930550158E+00    2.2965659395775049E+01
O    1.8565568662208673E+01    1.8490971592813562E+01    1.0010388500620907E+01
O    1.8539363200060500E+01    1.8487416579404602E+01    2.3009717007100591E+01
O    4.5292320289852768E+00    4.6669948732865674E+00    3.2708146762167845E+00
O    4.8313661098707446E+00    4.4976537591266492E+00    1.6463268272430895E+01
O    4.5693837555521606E+00    1.3923429098378120E+01    3.2133265883020843E+00
O    4.6401700770590395E+00    1.3830029107362591E+01    1.6394238124714558E+01
O    4.6633944209411515E+00    2.3143298829726945E+01    3.2875600502687399E+00
O    4.7273416725632798E+00    2.3330371769683826E+01    1.6580970004295999E+01
O    1.4038244333128334E+01    4.5327574161265236E+00    3.2435162348298689E+00
O    1.3852673927653672E+01    4.5547584232818030E+00    1.6253659188647596E+01
O    1.4007019823065139E+01    1.4000893101215581E+01    3.4897244795801834E+00
O    1.3860241512591077E+01    1.3927352997917732E+01    1.6446187873047904E+01
O    1.4026372243406845E+01    2.3004432177254547E+01    3.3224293873034116E+00
O    1.3725737368942699E+01    2.3217035902791189E+01    1.6365618957911000E+01
O    2.3115595943267323E+01    4.6511690917160093E+00    3.2361858404138260E+00
O    2.3147331582319286E+01    4.6238510963853479E+00    1.6444252153842481E+01
O    2.3423240316850517E+01    1.3970701347775723E+01    3.2735790818926027E+00
O    2.3194055064329415E+01    1.3691114359661480E+01    1.6272929469049124E+01
O    2.3144868574778222E+01    2.3196649206961300E+01    3.2951642528271439E+00
O    2.3400072939933320E+01    2.3143081678704778E+01    1.6377468535430115E+01
O    6.7626512279147155E+00    2.2618488110957289E+00    6.2721551385197332E+00
O    6.9346608344914236E+00    2.3258405436596004E+00    1.9805974687211709E+01
O    6.8169140304877480E+00    1.1700737890071101E+01    6.4513124353585232E+00
O    7.0042300085647371E+00    1.1545559179123176E+01    1.9803161563008821E+01
O    6.9656559203011552E+00    2.0943344407898707E+01    6.6151924564059641E+00
O    6.9867842079805076E+00    2.0790401382521452E+01    1.9800512908884663E+01
O    1.6307871277283439E+01    2.4483348345018148E+00    6.6621823929697506E+00
O    1.6186539177034927E+01    2.4853864703058290E+00    1.9726427153608924E+01
O    1.6235488049613355E+01    1.1523703975411918E+01    6.5915337208724933E+00
O    1.6287432725744520E+01    1.1767780833127594E+01    1.9607710180676385E+01
O    1.6170372139327522E+01    2.0911044858997577E+01    6.7377854084125843E+00
O    1.6273027135165510E+01    2.0951901764950225E+01    1.9655506783512845E+01
O    2.5453958549693557E+01    2.4435259418157216E+00    6.5628303140998403E+00
O    2.5407347095755515E+01    2.4295037723498281E+00    1.9668419623180352E+01
O    2.5492946219609294E+01    1.1541318132687589E+01    6.6174259244472333E+00
O    2.5620164969752537E+01    1.1699043765113405E+01    1.9707734429133055E+01
O    2.5588654854071471E+01    2.1007971110616886E+01    6.4651311461537349E+00
O    2.5451633514273180E+01    2.0931307279430076E+01    1.9743805719158793E+01
O    2.2287538853621034E+00    2.2911268044395707E+00    6.4932361182812999E+00
O    2.3097476317531678E+00    2.3492949135708430E+00    1.9711996215381873E+01
O    2.2509563849504759E+00    1.1591395361900030E+01    6.4648369929254166E+00
O    2.2584538820964237E+00    1.1608776914803116E+01    1.9774070900135275E+01
O    2.4130119884983192E+00    2.0945406180408209E+01    6.5872224690319729E+00
O    2.2010700444958062E+00    2.0936641515011317E+01    1.9655061028455716E+01
O    1.1517211023537561E+01    2.3801901758023951E+00    6.5902611254879657E+00
O    1.1589047615033651E+01    2.3459225755510933E+00    1.9721961048062425E+01
O    1.1452541885845958E+01    1.1550963805054542E+01    6.4755663532981655E+00
O    1.1713582825942140E+01    1.1527879661039357E+01    1.9746594619268507E+01
O    1.1564253885767167E+01    2.0986708939173003E+01    6.5558687223371894E+00
O    1.1593459416031083E+01    2.0916204776273293E+01    1.9765955993518016E+01
O    2.0851844933499642E+01    2.3409530041162681E+00    6.4751530015200540E+00
O    2.0794466075939859E+01    2.2501114872624650E+00    1.9554923892457428E+01
O    2.0751531869637656E+01    1.1590546843992211E+01    6.5226078175325179E+00
O    2.0902067403450456E+01    1.1584409959136895E+01    1.9739953175182695E+01
O    2.0856112955904017E+01    2.0998067755828359E+01    6.6769255907246166E+00
O    2.0786590525407320E+01    2.0925400057593901E+01    1.9751686874852656E+01
O    2.3561229080467387E+00    6.9527820482274212E+00    2.6229825367988234E+01
O    2.3653844772279138E+00    7.0854255139495219E+00    1.3181392657967384E+01
O    2.2441527031381461E+00    1.6165419375331666E+01    2.6019358670692377E+01
O    2.4710062336367096E+00    1.6389037060196635E+01    1.3092496239749002E+01
O    2.2028564253274521E+00    2.5333836333311631E+01    2.6220365951053775E+01
O    2.4147695443279051E+00    2.5643295340262423E+01    1.3238807892664127E+01
O    1.1727996521505812E+01    7.0151861007149590E+00    7.7630987327192438E-02
O    1.1545414291214556E+01    7.1282353824875608E+00    1.3012165324382790E+01
O    1.1617062021099628E+01    1.6229598627347169E+01    2.1331947054408145E-02
O    1.1754283179838977E+01    1.6357602138314999E+01    1.3106786799655429E+01
O    1.1590071783652258E+01    2.5525490335138887E+01    2.6149424256378659E+01
O    1.1565141089504888E+01    2.5478659818758043E+01    1.3193703310949930E+01
O    2.0920402592620643E+01    7.0978401676942173E+00    2.6090105777289246E+01
O    2.0842734944803578E+01    6.7797727087790580E+00    1.3015272036888174E+01
O    2.0933864534420966E+01    1.6305695824568559E+01    1.1113490632769941E-01
O    2.0871977150771027E+01    1.6167227313498852E+01    1.3037522972287855E+01
O    2.0733608895085297E+01    2.5516957978104397E+01    1.1675057548506618E-02
O    2.0850029085808067E+01    2.5461319895360823E+01    1.3067010072750037E+01
O    7.0174363187250313E+00    6.8651897492708640E+00    1.8720000840392676E-02
O    6.8796871694633435E+00    6.9580509720226225E+00    1.3021631767224182E+01
O    6.9725819370332403E+00    1.6273729748599806E+01    5.0029197149379749E-02
O    6.9999673802077629E+00    1.6205687289261459E+01    1.3116315823662950E+01
O    6.9691420192958953E+00    2.5564879285104389E+01    2.0968327218201167E-02
O    7.0794245261327120E+00    2.5545091338368728E+01    1.3186776591039951E+01
O    1.6303464944265976E+01    6.9739494154971498E+00    2.6146492273164654E+01
O    1.6140544436191867E+01    7.0042328316145923E+00    1.3161609924509371E+01
O    1.6291303058108241E+01    1.6282900886800299E+01    2.0654910143379057E-01
O    1.6306912400836048E+01    1.6146536511703967E+01    1.3071491324376282E+01
O    1.6120911864646896E+01    2.5488816813113775E+01    1.4405974751886524E-01
O    1.6430973605165310E+01    2.5400964869022062E+01    1.2960015440028185E+01
O    2.5543470020425566E+01    7.0160431767582576E+00    2.6152341925789209E+01
O    2.5460856980315878E+01    6.9427586467747213E+00    1.3141480749843726E+01
O    2.5481628842898914E+01    1.6276934848943668E+01    2.6076165720380750E+01
O    2.5704283697428234E+01    1.6213288749664297E+01    1.3158795090307221E+01
O    2.5481948532444825E+01    2.5478275068303962E+01    1.2919655610046629E-01
O    2.5591045797553623E+01    2.5580323350372961E+01    1.3196103277684795E+01
O    2.2112972172993444E+00    6.8447156554977315E+00    6.4897830332011006E+00
O    2.4273411639541531E+00    6.8596370678149743E+00    1.9563394709926918E+01
O    2.3544346932437081E+00    1.6327996246664828E+01    6.4052895197323547E+00
O    2.2733731505889287E+00    1.6251195530607820E+01    1.9769694881689112E+01
O    2.4278010385117694E+00    2.5548443925390014E+01    6.4942333647094639E+00
O    2.2578103871120128E+00    2.5561412572550719E+01    1.9818224282624108E+01
O    1.1694507776634747E+01    6.9976298322416737E+00    6.5240472363207118E+00
O    1.1549999480244717E+01    6.9154149531477369E+00    1.9675513076682353E+01
O    1.1610995079737375E+01    1.6260477303697662E+01    6.7795733107563008E+00
O    1.1577475202836251E+01    1.6265832210187110E+01    1.9722021545291046E+01
O    1.1715158723557073E+01    2.5624919593406798E+01    6.5673040295955110E+00
O    1.1462591670229635E+01    2.5472206068227880E+01    1.9743534553995801E+01
O    2.0813438872852480E+01    6.9428932199292044E+00    6.5573230110685019E+00
O    2.0828474384893180E+01    6.9397021819920113E+00    1.9554459587537877E+01
O    2.0959771815031385E+01    1.6201552169532516E+01    6.4863367026563212E+00
O    2.0825874830108070E+01    1.6236912415983937E+01    1.9472882210668704E+01
O    2.0999210931975114E+01    2.5547671466010993E+01    6.5908222665791998E+00
O    2.0896731077697282E+01    2.5496361703751518E+01    1.9465294277297897E+01
O    7.0467519464823560E+00    6.9304427748262247E+00    6.5941698320886246E+00
O    7.0137041064853847E+00    6.8374337063762676E+00    1.9803605105899312E+01
O    7.0428387531873931E+00    1.6106964251306902E+01    6.6315261039646298E+00
O    7.0084931422380139E+00    1.6150270096610534E+01    1.9557367414126130E+01
O    7.1774640773501703E+00    2.5452078509176655E+01    6.7115005429131500E+00
O    6.9307433420273261E+00    2.5519563335376386E+01    1.9713337681802351E+01
O    1.6314480599124678E+01    6.9105823849938890E+00    6.3942600319825003E+00
O    1.6202873536483295E+01    7.0419685025692083E+00    1.9641031975535626E+01
O    1.6373782596745752E+01    1.6178545570291622E+01    6.5860953963823636E+00
O    1.6302167584375894E+01    1.6245215849948700E+01    1.9717397318739284E+01
O    1.6391243878420163E+01    2.5508394117299467E+01    6.5983935793264177E+00
O    1.6220513473255952E+01    2.5551157153289424E+01    1.9529201090450346E+01
O    2.5591691085320207E+01    6.9259856016736352E+00    6.4313684850853328E+00
O    2.5538178593871962E+01    7.0569654678709073E+00    1.9640839777599822E+01
O    2.5646212856754421E+01    1.6230706284656126E+01    6.7464249095325730E+00
O    2.5629133873669208E+01    1.6158431100019680E+01    1.9548432525539756E+01
O    2.5599671160407492E+01    2.5506867996372939E+01    6.5368753735981562E+00
O    2.5624040125801969E+01    2.5532168922079460E+01    1.9625735848642350E+01
O    6.8648122877326694E+00    2.2857267165598882E+00    2.4587046180610340E-02
O    6.9938861486345250E+00    2.2961052160238244E+00    1.3085345654816024E+01
O    6.9597825069283141E+00    1.1463615501473573E+01    2.6153381709520673E+01
O    6.9972810269396080E+00    1.1632508308553067E+01    1.3045409712490381E+01
O    6.8631516691903336E+00    2.0851125745401117E+01    9.2505405318841549E-02
O    6.9501708013700156E+00    2.0809847668224084E+01    1.3338269863394416E+01
O    1.6223844967081231E+01    2.2834514230801046E+00    2.6133198656475280E+01
O    1.6407813768272341E+01    2.3541070263430903E+00    1.2909025070337460E+01
O    1.6337259520646366E+01    1.1634331035904500E+01    2.2087985654907299E-02
O    1.6200417377156619E+01    1.1540440900590184E+01    1.3218663807249747E+01
O    1.6321116683815141E+01    2.0841075603345924E+01    1.3248536345164033E-01
O    1.6228127862009739E+01    2.0795592785602853E+01    1.3256920086938287E+01
O    2.5504598957964067E+01    2.4349276143055820E+00   -5.3956577684214030E-04
O    2.5605163598994412E+01    2.3029090492631847E+00    1.3090951206521506E+01
O    2.5517113913201683E+01    1.1709319176842401E+01    2.6136003335215023E+01
O    2.5555129216998054E+01    1.1549250430761585E+01    1.3056063509441172E+01
O    2.5603588831806675E+01    2.0820172806459883E+01    1.5136028399702487E-02
O    2.5525483989918030E+01    2.0831876943978727E+01    1.3193922668183964E+01
O    2.2280867378394671E+00    2.2139401535638461E+00   -1.7669567051824269E-03
O    2.2707214686351223E+00    2.3690842681558628E+00    1.3055140853146513E+01
O    2.2249626903264392E+00    1.1536644959770237E+01    2.6112389993051597E+01
O    2.3460647914736672E+00    1.1686065085043214E+01    1.3005845384217476E+01
O    2.2648069945170235E+00    2.0764448665359165E+01    4.7703006876287944E-02
O    2.2221546523232512E+00    2.1046993814982265E+01    1.3207549094339038E+01
O    1.1546593056711641E+01    2.2994230981739139E+00    3.9940004311250513E-02
O    1.1697264469945686E+01    2.2604837367521866E+00    1.3023647312021611E+01
O    1.1679840011873607E+01    1.1507322373294315E+01    1.4511938534304994E-01
O    1.1521675728169834E+01    1.1743460468558853E+01    1.3202135216664979E+01
O    1.1487490831553304E+01    2.0729161928164920E+01    2.6184184970398729E+01
O    1.1544755125854474E+01    2.0866846043388289E+01    1.3067020498065855E+01
O    2.0740393689073052E+01    2.4181139653346855E+00    2.6147836105748077E+01
O    2.0972054599722373E+01    2.2695286553818610E+00    1.3133625155561552E+01
O    2.0893422916523441E+01    1.1699546164587312E+01    2.6197778241071362E+01
O    2.0658517194478129E+01    1.1434823117009669E+01    1.3146663936761186E+01
O    2.0924789261360740E+01    2.0822705481286452E+01    2.6253451150280965E-02
O    2.0952228384419346E+01    2.0872184169150167E+01    1.3227130228316215E+01
Si    2.7814202984338618E+01    2.7820760613301729E+01    2.6174620992772905E+01
Si    4.3157742251375503E-02    2.7799544643460440E+01    1.3228773401627326E+01
Si    2.7766017435857155E+01    9.3101995825359101E+00    2.6194849120896205E+01
Si    2.7801230053872764E+01    9.2170986747069072E+00    1.3025053128616426E+01
Si    2.7689236489177617E+01    1.8558411162421280E+01    2.6178616061974477E+01
Si    5.2728608720935613E-02    1.8619606101433554E+01    1.3248545197736901E+01
Si    9.2065382512937219E+00    2.3981666640787772E-02    2.6180532455890098E+01
Si    9.2953234652840298E+00    7.5901430662542929E-02    1.3125386236641232E+01
Si    9.3891909188127816E+00    9.1980413754534371E+00    3.0511781489697999E-02
Si    9.2834923825086726E+00    9.3449341219866682E+00    1.3079211989707156E+01
Si    9.2834128477262432E+00    1.8527670787001945E+01    1.0007580231282080E-01
Si    9.2022913219595157E+00    1.8518952631630636E+01    1.3227342531129930E+01
Si    1.8570314712101663E+01    3.2266597216392988E-02    2.6230159165367841E+01
Si    1.8556666965149599E+01    2.7790954641051677E+01    1.3014332359899843E+01
Si    1.8680842173479785E+01    9.2889223510190977E+00    6.4917661833943749E-02
Si    1.8531410075203741E+01    9.1996219333305440E+00    1.3066967266557269E+01
Si    1.8604594582568346E+01    1.8486016154074424E+01    2.6192895003433289E+01
Si    1.8516528639362303E+01    1.8496755604216681E+01    1.3066502469709482E+01
Si    4.5397269000210878E+00    4.5769103267509816E+00    4.3320496687302354E-02
Si    4.6245414475456288E+00    4.6229600852541957E+00    1.3148786379699271E+01
Si    4.6547905673417134E+00    1.3909639353485206E+01    1.5801307810744968E-02
Si    4.6360563883018626E+00    1.3972045742402557E+01    1.3150013133877380E+01
Si    4.5118239245367038E+00    2.3023301780238320E+01    1.2868710396284389E-02
Si    4.6776162914489010E+00    2.3259083566159905E+01    1.3136059520940194E+01
Si    1.3894573957405242E+01    4.7351187480532912E+00    2.6226461365828229E+01
Si    1.3837021360147332E+01    4.6729907734378298E+00    1.3103682405142829E+01
Si    1.3962770015732385E+01    1.3876419529652358E+01   -5.3253220485712472E-03
Si    1.3828170221731868E+01    1.3948140377194218E+01    1.3083384450857210E+01
Si    1.3892269092311565E+01    2.3162370258268517E+01    4.4168804831030820E-02
Si    1.3733676862132969E+01    2.3155515545492278E+01    1.3105197062895479E+01
Si    2.3115416649209475E+01    4.7465885714643958E+00    2.6214271875872054E+01
Si    2.3130538581192141E+01    4.6237950116860675E+00    1.3095747700223017E+01
Si    2.3159930981195973E+01    1.3887439502126096E+01    2.6156663884067111E+01
Si    2.3045142997416974E+01    1.3842176998001758E+01    1.3038192059175959E+01
Si    2.3155023175315588E+01    2.3319028856706542E+01    2.6169267187212959E+01
Si    2.3247011598351250E+01    2.3265275672136386E+01    1.3208163216391355E+01
Si    6.6947884435463331E-02    2.7801372111111430E+01    6.5847803497325685E+00
Si    5.4194009600969262E-02    2.7802045720895574E+01    1.9760162295049831E+01
Si    2.9264723799395532E-02    9.2834513906258067E+00    6.4780237144706856E+00
Si    6.0362180674232553E-02    9.2981678024033947E+00    1.9698494519850296E+01
Si    1.5791288222684371E-03    1.8572756389809978E+01    6.5022105390377130E+00
Si    2.7765105407126494E+01    1.8520876522078598E+01    1.9651129025899756E+01
Si    9.3118439172728511E+00    2.6243112520794185E-02    6.5486199500697708E+00
Si    9.2692344346599054E+00    2.4381316334818163E-02    1.9722815915455595E+01
Si    9.2341626921690256E+00    9.3064360551453831E+00    6.5496920981872311E+00
Si    9.3849249834609410E+00    9.2909163661682719E+00    1.9755548148442518E+01
Si    9.2893873106498130E+00    1.8619856619680224E+01    6.6104280378980276E+00
Si    9.3329220659514487E+00    1.8530919085253565E+01    1.9793006585025285E+01
Si    1.8709589668244266E+01    2.7764899210249904E+01    6.6327587970354154E+00
Si    1.8498048262378529E+01    2.7834138460527900E+01    1.9661009768272287E+01
Si    1.8625218230401018E+01    9.2314796444324063E+00    6.5402045811396672E+00
Si    1.8640029915018495E+01    9.2142064708096569E+00    1.9652127092463260E+01
Si    1.8613403053005683E+01    1.8602260286331074E+01    6.5831443266356580E+00
Si    1.8518839355752679E+01    1.8412148924224805E+01    1.9577484374134269E+01
Si    4.6447232617509568E+00    4.5984894284518214E+00    6.4770565923244829E+00
Si    4.5898031861680266E+00    4.5767714277574880E+00    1.9767576645342967E+01
Si    4.7022343050284636E+00    1.4004445540866614E+01    6.5772654662710632E+00
Si    4.7011082054965403E+00    1.3959134394878452E+01    1.9765385559205534E+01
Si    4.6642146776277107E+00    2.3138504376252676E+01    6.6345443697756306E+00
Si    4.6764569383999781E+00    2.3166246321782044E+01    1.9731120276824576E+01
Si    1.3897121352349934E+01    4.5641310964369168E+00    6.4736588578981156E+00
Si    1.3965509474379262E+01    4.6569940014102524E+00    1.9653868988718262E+01
Si    1.4075874885300260E+01    1.3940127617309432E+01    6.6426395396783695E+00
Si    1.3918521438455219E+01    1.3899608187226365E+01    1.9628271509146533E+01
Si    1.3925103479073368E+01    2.3202393738770798E+01    6.5499207979990137E+00
Si    1.3861002288104627E+01    2.3085609649121690E+01    1.9641605890729355E+01
Si    2.3171091208483116E+01    4.5974981185034123E+00    6.4515670988989235E+00
Si    2.3278568087511712E+01    4.7120859420873966E+00    1.9574469803834962E+01
Si    2.3219691791620438E+01    1.3887726376022066E+01    6.4991633214718894E+00
Si    2.3281165341362836E+01    1.3925642931282132E+01    1.9695091010038890E+01
Si    2.3258702241834555E+01    2.3285741135770174E+01    6.5725005992536474E+00
Si    2.3220605259436056E+01    2.3146566519213700E+01    1.9658582952919090E+01
Ca    4.5758596835958150E+00    2.7579432645441671E+01    3.3034569129169471E+00
Ca    4.6240552364361109E+00    8.8009286599127393E-02    1.6427403284001539E+01
Ca    4.6016618133849914E+00    9.1654466110073400E+00    3.2725533974353298E+00
Ca    4.7906601297130171E+00    9.3888865851227159E+00    1.6358016516780111E+01
Ca    4.5679573046457413E+00    1.8545504103547582E+01    3.2366901037976636E+00
Ca    4.6859652473195270E+00    1.8602484818884800E+01    1.6435280432067234E+01