 # Version information for this restart file 
 # current date 2015-10-23 16:54:49.573
 # current working dir /home/filipe/dev/github/mdff/branches/PIM_quadrupole_tests/tests/cp2k
 # Program compiled at                              Sat Oct 11 19:03:13 UTC 2014
 # Program compiled on                                                     binet
 # Program compiled for                                      Linux-i686-gfortran
 # Source code revision number                                         svn:13632
 &GLOBAL
   PRINT_LEVEL  LOW
   PROJECT_NAME AIM
   RUN_TYPE  MD
 &END GLOBAL
 &MOTION
   &MD
     ENSEMBLE  NVT
     STEPS  1
     TIMESTEP     9.9999999999999989E-01
     STEP_START_VAL  1
     TIME_START_VAL     9.9999999999999989E-01
     ECONS_START_VAL    -3.9143351178236446E+02
     TEMPERATURE     3.0000000000000000E+02
     &THERMOSTAT
       REGION  GLOBAL
       &NOSE
         LENGTH  3
         YOSHIDA  3
         TIMECON     1.0000000000000001E+03
         MTS  2
         &COORD
               3.0479623061198024E-05   -1.7770397696758725E-05   -4.8368045373225686E-06
         &END COORD
         &VELOCITY
               7.3822197093570020E-07   -4.2983290066471203E-07   -1.2908730924519053E-07
         &END VELOCITY
         &MASS
               1.7487571273478644E+09    1.6237299232570699E+06    1.6237299232570699E+06
         &END MASS
         &FORCE
               6.1182864841725667E-11    1.8343591057979748E-12   -5.8491538217855662E-10
         &END FORCE
       &END NOSE
     &END THERMOSTAT
     &AVERAGES  T
       &RESTART_AVERAGES
         ITIMES_START  1
         AVECPU     6.3039999999928966E+00
         AVEHUGONIOT     0.0000000000000000E+00
         AVETEMP_BARO     0.0000000000000000E+00
         AVEPOT    -3.9199944456439937E+02
         AVEKIN     5.6509600418973127E-01
         AVETEMP     3.3137045822539079E+02
         AVEKIN_QM     0.0000000000000000E+00
         AVETEMP_QM     0.0000000000000000E+00
         AVEVOL     2.1484398205112971E+04
         AVECELL_A     2.7799761140880694E+01
         AVECELL_B     2.7799761140880694E+01
         AVECELL_C     2.7799761140880694E+01
         AVEALPHA     9.0000000000000000E+01
         AVEBETA     9.0000000000000000E+01
         AVEGAMMA     9.0000000000000000E+01
         AVE_ECONS     0.0000000000000000E+00
         AVE_PRESS     0.0000000000000000E+00
         AVE_PXX     0.0000000000000000E+00
       &END RESTART_AVERAGES
     &END AVERAGES
   &END MD
   &PRINT
     &FORCES  SILENT
       FORMAT  XMOL
       &EACH
         MD  1
       &END EACH
     &END FORCES
   &END PRINT
 &END MOTION
 &FORCE_EVAL
   METHOD  FIST
   &MM
     &FORCEFIELD
       &NONBONDED
         &BMHFTD
           ATOMS O O
           A     1.0680000000000000E+03
           B     5.0376000000000003E+00
           C     9.7429999999999994E-01
           D     5.2469000000000001E+00
           BD     2.7183999999999999E+00
         &END BMHFTD
         &BMHFTD
           ATOMS Si O
           A     4.3277000000000001E+01
           B     2.9136000000000002E+00
           C     4.7900000000000005E-02
           D     1.5559999999999999E-01
           BD     0.0000000000000000E+00
         &END BMHFTD
         &BMHFTD
           ATOMS Ca O
           A     4.0058199999999999E+01
           B     2.8412999999999999E+00
           C     4.7900000000000005E-02
           D     1.5559999999999999E-01
           BD     0.0000000000000000E+00
         &END BMHFTD
         &BMHFTD
           ATOMS Si Si
           A     0.0000000000000000E+00
           B     2.8170000000000002E+00
           C     4.7000000000000002E-03
           D     5.3000000000000000E-03
           BD     1.8897285785000001E+06
         &END BMHFTD
         &BMHFTD
           ATOMS Si Ca
           A     0.0000000000000000E+00
           B     2.8170000000000002E+00
           C     4.7000000000000002E-03
           D     5.3000000000000000E-03
           BD     1.8897285785000001E+06
         &END BMHFTD
         &BMHFTD
           ATOMS Ca Ca
           A     0.0000000000000000E+00
           B     2.8170000000000002E+00
           C     4.7000000000000002E-03
           D     5.3000000000000000E-03
           BD     1.8897285785000001E+06
         &END BMHFTD
       &END NONBONDED
       &CHARGE
         ATOM O
         CHARGE    -2.0000000000000000E+00
       &END CHARGE
       &CHARGE
         ATOM Si
         CHARGE     4.0000000000000000E+00
       &END CHARGE
       &CHARGE
         ATOM Ca
         CHARGE     2.0000000000000000E+00
       &END CHARGE
       &DIPOLE
         ATOM O
         APOL     1.2991501669120891E+00
         &DAMPING
           ATOM Si
           TYPE Tang-Toennies
           ORDER  4
           BIJ     4.0156680323819920E+00
           CIJ     1.5932999999999999E+00
         &END DAMPING
         &DAMPING
           ATOM Ca
           TYPE Tang-Toennies
           ORDER  4
           BIJ     3.4577754351240171E+00
           CIJ     2.3591952622900001E+00
         &END DAMPING
       &END DIPOLE
       &DIPOLE
         ATOM Ca
         APOL     5.1864096729439269E-01
         &DAMPING
           ATOM O
           TYPE Tang-Toennies
           ORDER  4
           BIJ     6.6135507383530490E+00
           CIJ     1.0037178746700000E+00
         &END DAMPING
         &DAMPING
           ATOM Si
           TYPE Tang-Toennies
           ORDER  4
           BIJ     6.6135507383530490E+00
           CIJ     1.0037178746700000E+00
         &END DAMPING
       &END DIPOLE
     &END FORCEFIELD
     &POISSON
       &EWALD
         EWALD_TYPE  EWALD
         ALPHA     4.9044529999999997E-01
         GMAX  11
         O_SPLINE  6
         &MULTIPOLES  T
           MAX_MULTIPOLE_EXPANSION  DIPOLE
           POL_SCF  SELF_CONSISTENT
           MAX_IPOL_ITER  100
           EPS_POL     9.9999999999999995E-07
         &END MULTIPOLES
       &END EWALD
     &END POISSON
   &END MM
   &SUBSYS
     &CELL
       A     1.4711000000000000E+01    0.0000000000000000E+00    0.0000000000000000E+00
       B     0.0000000000000000E+00    1.4711000000000000E+01    0.0000000000000000E+00
       C     0.0000000000000000E+00    0.0000000000000000E+00    1.4711000000000000E+01
       MULTIPLE_UNIT_CELL  1 1 1
     &END CELL
     &COORD
O    4.9507255233682324E-02    2.7781615092930011E+01    3.2776769544638711E+00
O    1.4249835531517274E-01    3.3209452154896082E-02    1.6361979309651158E+01
O    2.7718811737417290E+01    9.1518554838651713E+00    3.1666408172897458E+00
O    2.7797473256092612E+01    9.3746419516826460E+00    1.6377337573424008E+01
O    2.7752614032584596E+01    1.8455176976189613E+01    3.2126016439277767E+00
O    3.0620387986389167E-02    1.8721121870247991E+01    1.6549201838791337E+01
O    9.4165275387130869E+00    2.7784144282533614E+01    3.3556642354587782E+00
O    9.2159583222907493E+00    8.6503266331576956E-02    1.6380999590168337E+01
O    9.1876157772169229E+00    9.1358480240749191E+00    3.2595855383112213E+00
O    9.2774322890580567E+00    9.2374883243246462E+00    1.6349409299796605E+01
O    9.2730642785641795E+00    1.8532295977206051E+01    3.3605295715618571E+00
O    9.3626124642265083E+00    1.8560526128769887E+01    1.6334448088703290E+01
O    1.8493859357383542E+01    1.3313250316169736E-01    3.2862958599704886E+00
O    1.8472524460237125E+01    2.7784995430461979E+01    1.6331355763189610E+01
O    1.8617161908214463E+01    9.2844099261422812E+00    3.2444200154563001E+00
O    1.8589385056806751E+01    9.1380222676377425E+00    1.6412333410139045E+01
O    1.8605735827952110E+01    1.8624800211580492E+01    3.3733172227644133E+00
O    1.8509886307521384E+01    1.8517556038942647E+01    1.6390908949598593E+01
O    4.6296436921653994E+00    4.5692938945800075E+00    9.7985915211852479E+00
O    4.5458326736574044E+00    4.5566679765177103E+00    2.2980144830776638E+01
O    4.6740891094770225E+00    1.3998230762170438E+01    9.7840421774185149E+00
O    4.7845109842960252E+00    1.3865639806504905E+01    2.2987591610471227E+01
O    4.6396339667977715E+00    2.3319038558004156E+01    9.9067830648837969E+00
O    4.6262630084155338E+00    2.2933447459222169E+01    2.3011075166079276E+01
O    1.3780532812551590E+01    4.6637824284737572E+00    9.9158447734295869E+00
O    1.3857044344246646E+01    4.7182460226816598E+00    2.2963038625349974E+01
O    1.3913943441787131E+01    1.3784728980737231E+01    9.8607766958355629E+00
O    1.3926315545280449E+01    1.3897347941327876E+01    2.3098133261917710E+01
O    1.3908825029521097E+01    2.3191676508733735E+01    9.8811392405497394E+00
O    1.3885733737928955E+01    2.3048461786481301E+01    2.2918258008403040E+01
O    2.3240502755381296E+01    4.6581276854948213E+00    9.7880251711214328E+00
O    2.3073692247777078E+01    4.5188140149646179E+00    2.2962183402648563E+01
O    2.3108571160904066E+01    1.3728504399174014E+01    9.9070471997031593E+00
O    2.3100196574487970E+01    1.4053616066182334E+01    2.2822144445336953E+01
O    2.3369203747700215E+01    2.3260434674747643E+01    9.8546175180663607E+00
O    2.3212502357098625E+01    2.3391179834570444E+01    2.3003456517235584E+01
O    8.8292265465189756E-02    2.4977715826553594E-02    9.8449788094040471E+00
O    2.7699693752128194E+01    4.7915957422798694E-02    2.2955454454953170E+01
O    2.7719957170333927E+01    9.1181548192161763E+00    9.8022945094109275E+00
O    2.6302369067311465E-03    9.1844956641295568E+00    2.2912370879575455E+01
O    9.2533971143837046E-02    1.8640629714058097E+01    9.9583662715312293E+00
O    2.7590109235242153E+01    1.8565669476641418E+01    2.2856131649278719E+01
O    9.2053709021133976E+00    1.5285068102373237E-01    9.8334774747732165E+00
O    9.2583321634184887E+00    2.7772747443604253E+01    2.3035098473818785E+01
O    9.1982274643238355E+00    9.2706701199317507E+00    9.7957660766897607E+00
O    9.3094367739924628E+00    9.1836744614040668E+00    2.2917179281384950E+01
O    9.2546414318033303E+00    1.8610174454582857E+01    9.9685642703761861E+00
O    9.1932253193331732E+00    1.8410698539542665E+01    2.3028151783501666E+01
O    1.8678378951531780E+01    2.3705144531973733E-02    9.8423956150424097E+00
O    1.8547835479856555E+01    2.7742626504815725E+01    2.2950108816564413E+01
O    1.8420329171342104E+01    9.0884166981911250E+00    9.7885087497843752E+00
O    1.8591059696729829E+01    9.3376784990122701E+00    2.2965659359314138E+01
O    1.8565568693010693E+01    1.8490971589999578E+01    1.0010388345125001E+01
O    1.8539363175845576E+01    1.8487416581294184E+01    2.3009717005061230E+01
O    4.5292320430824251E+00    4.6669948728073756E+00    3.2708146635046229E+00
O    4.8313661197157129E+00    4.4976537693515857E+00    1.6463268258257045E+01
O    4.5693837505136647E+00    1.3923429101606320E+01    3.2133265828966180E+00
O    4.6401701009344123E+00    1.3830029089169210E+01    1.6394238127907709E+01
O    4.6633944348564604E+00    2.3143298835338584E+01    3.2875600315963456E+00
O    4.7273416769040448E+00    2.3330371798312409E+01    1.6580969982413610E+01
O    1.4038244328625229E+01    4.5327574382913394E+00    3.2435162064532341E+00
O    1.3852673928944629E+01    4.5547584265126693E+00    1.6253659224529152E+01
O    1.4007019824596167E+01    1.4000893124883076E+01    3.4897244790417847E+00
O    1.3860241532914042E+01    1.3927352980380673E+01    1.6446187863681178E+01
O    1.4026372240910847E+01    2.3004432192431366E+01    3.3224293773777474E+00
O    1.3725737366862793E+01    2.3217035879732027E+01    1.6365618990809114E+01
O    2.3115595908901412E+01    4.6511690995069150E+00    3.2361858119332116E+00
O    2.3147331587590283E+01    4.6238511296972469E+00    1.6444252134464023E+01
O    2.3423240329750900E+01    1.3970701367582514E+01    3.2735790910631475E+00
O    2.3194055058591431E+01    1.3691114351913031E+01    1.6272929479669781E+01
O    2.3144868588527036E+01    2.3196649186015073E+01    3.2951642763991349E+00
O    2.3400072956547135E+01    2.3143081649711888E+01    1.6377468553837293E+01
O    6.7626512310981521E+00    2.2618487817978767E+00    6.2721551397692297E+00
O    6.9346608316028400E+00    2.3258405393878001E+00    1.9805974657041070E+01
O    6.8169140275117224E+00    1.1700737920252816E+01    6.4513124494359406E+00
O    7.0042300064912419E+00    1.1545559193313094E+01    1.9803161553760901E+01
O    6.9656559340366941E+00    2.0943344403584515E+01    6.6151924771059756E+00
O    6.9867842087626979E+00    2.0790401389276994E+01    1.9800512924511242E+01
O    1.6307871269122742E+01    2.4483348230595388E+00    6.6621823879493061E+00
O    1.6186539177822933E+01    2.4853864522379774E+00    1.9726427150596606E+01
O    1.6235488047464198E+01    1.1523703989176425E+01    6.5915337010755843E+00
O    1.6287432738202323E+01    1.1767780812628251E+01    1.9607710164220478E+01
O    1.6170372147257329E+01    2.0911044856905157E+01    6.7377854267207562E+00
O    1.6273027131711572E+01    2.0951901763556098E+01    1.9655506761933935E+01
O    2.5453958558156838E+01    2.4435259130033717E+00    6.5628303215529700E+00
O    2.5407347103972118E+01    2.4295037585895667E+00    1.9668419615508611E+01
O    2.5492946212282227E+01    1.1541318149975277E+01    6.6174259003104847E+00
O    2.5620164982473604E+01    1.1699043768533114E+01    1.9707734400115132E+01
O    2.5588654846514910E+01    2.1007971097144765E+01    6.4651311973462731E+00
O    2.5451633534478187E+01    2.0931307264446335E+01    1.9743805701719378E+01
O    2.2287539064548985E+00    2.2911268032007408E+00    6.4932361021304121E+00
O    2.3097476323971127E+00    2.3492949223694115E+00    1.9711996202731463E+01
O    2.2509563827067445E+00    1.1591395396911615E+01    6.4648370053664639E+00
O    2.2584538828547571E+00    1.1608776919922150E+01    1.9774070905374089E+01
O    2.4130119769423146E+00    2.0945406150201574E+01    6.5872224737101970E+00
O    2.2010700479987992E+00    2.0936641519982569E+01    1.9655061011962331E+01
O    1.1517211023569036E+01    2.3801901757257724E+00    6.5902611367515398E+00
O    1.1589047648743740E+01    2.3459225650263966E+00    1.9721961039737167E+01
O    1.1452541928281253E+01    1.1550963823400068E+01    6.4755663443663236E+00
O    1.1713582833256925E+01    1.1527879667269103E+01    1.9746594622695795E+01
O    1.1564253907264710E+01    2.0986708911712565E+01    6.5558687336030790E+00
O    1.1593459410873425E+01    2.0916204757780935E+01    1.9765955998678276E+01
O    2.0851844948633950E+01    2.3409529842943968E+00    6.4751529988224137E+00
O    2.0794466073784129E+01    2.2501115086068659E+00    1.9554923887091498E+01
O    2.0751531878208375E+01    1.1590546877661337E+01    6.5226078250599357E+00
O    2.0902067373546892E+01    1.1584409980311252E+01    1.9739953151124435E+01
O    2.0856112970351763E+01    2.0998067732364742E+01    6.6769256064549971E+00
O    2.0786590523278516E+01    2.0925400052554178E+01    1.9751686878092560E+01
O    2.3561229181245205E+00    6.9527820517634087E+00    2.6229825368244725E+01
O    2.3653844747149750E+00    7.0854255039833172E+00    1.3181392665940779E+01
O    2.2441527023150263E+00    1.6165419362245341E+01    2.6019358687329255E+01
O    2.4710062211979769E+00    1.6389037049687118E+01    1.3092496244031199E+01
O    2.2028564038864928E+00    2.5333836330128186E+01    2.6220365953505276E+01
O    2.4147695459704499E+00    2.5643295356155164E+01    1.3238807921916486E+01
O    1.1727996521292035E+01    7.0151861063845571E+00    7.7631003595561354E-02
O    1.1545414323302348E+01    7.1282353644802088E+00    1.3012165288484990E+01
O    1.1617062027435535E+01    1.6229598629943137E+01    2.1331969343712766E-02
O    1.1754283174257461E+01    1.6357602151172049E+01    1.3106786791548618E+01
O    1.1590071776722393E+01    2.5525490321329485E+01    2.6149424254205332E+01
O    1.1565141072780037E+01    2.5478659818759915E+01    1.3193703337032197E+01
O    2.0920402580557148E+01    7.0978401404722478E+00    2.6090105759336321E+01
O    2.0842734921554005E+01    6.7797727203377054E+00    1.3015272072063034E+01
O    2.0933864542285352E+01    1.6305695818059377E+01    1.1113490219923523E-01
O    2.0871977137505180E+01    1.6167227299756156E+01    1.3037522975175673E+01
O    2.0733608925444031E+01    2.5516957973929035E+01    1.1675079777423431E-02
O    2.0850029096538112E+01    2.5461319901949370E+01    1.3067010067419643E+01
O    7.0174363280065535E+00    6.8651897427175008E+00    1.8720012272652350E-02
O    6.8796871901970134E+00    6.9580509837357880E+00    1.3021631777861632E+01
O    6.9725819409917280E+00    1.6273729735391129E+01    5.0029233389628766E-02
O    6.9999673589922988E+00    1.6205687320520475E+01    1.3116315827808073E+01
O    6.9691420072870169E+00    2.5564879273811563E+01    2.0968350377438549E-02
O    7.0794245091399697E+00    2.5545091348420907E+01    1.3186776614814617E+01
O    1.6303464927433684E+01    6.9739494081669564E+00    2.6146492265177624E+01
O    1.6140544433075142E+01    7.0042328418301389E+00    1.3161609939515724E+01
O    1.6291303052457131E+01    1.6282900867639402E+01    2.0654912752598845E-01
O    1.6306912417442984E+01    1.6146536494839889E+01    1.3071491324422299E+01
O    1.6120911861683634E+01    2.5488816844189934E+01    1.4405974625259169E-01
O    1.6430973608210849E+01    2.5400964833043979E+01    1.2960015448307070E+01
O    2.5543470027628882E+01    7.0160431427902594E+00    2.6152341902338456E+01
O    2.5460857021972153E+01    6.9427586304861046E+00    1.3141480747484069E+01
O    2.5481628840301472E+01    1.6276934844155747E+01    2.6076165691011063E+01
O    2.5704283671128398E+01    1.6213288748895938E+01    1.3158795082240603E+01
O    2.5481948511669128E+01    2.5478275079099614E+01    1.2919654209865422E-01
O    2.5591045801460847E+01    2.5580323323936160E+01    1.3196103286209780E+01
O    2.2112972008892813E+00    6.8447156401968314E+00    6.4897830392585547E+00
O    2.4273411596228907E+00    6.8596370879459467E+00    1.9563394704110596E+01
O    2.3544346938164185E+00    1.6327996224843581E+01    6.4052895087848034E+00
O    2.2733731434650686E+00    1.6251195504423453E+01    1.9769694876180026E+01
O    2.4278010329185942E+00    2.5548443933540394E+01    6.4942333418868028E+00
O    2.2578103723403689E+00    2.5561412531787465E+01    1.9818224270647974E+01
O    1.1694507794662309E+01    6.9976298538128221E+00    6.5240472446934126E+00
O    1.1549999508074309E+01    6.9154149614433980E+00    1.9675513086832009E+01
O    1.1610995080819880E+01    1.6260477308700057E+01    6.7795733100719469E+00
O    1.1577475197301808E+01    1.6265832219400870E+01    1.9722021535329919E+01
O    1.1715158712225668E+01    2.5624919592688514E+01    6.5673040248399577E+00
O    1.1462591700516757E+01    2.5472206062567874E+01    1.9743534531963228E+01
O    2.0813438863393365E+01    6.9428931925227566E+00    6.5573230046490059E+00
O    2.0828474404690194E+01    6.9397021743403622E+00    1.9554459579689670E+01
O    2.0959771811182975E+01    1.6201552185560722E+01    6.4863367124990550E+00
O    2.0825874840301143E+01    1.6236912394570176E+01    1.9472882209955404E+01
O    2.0999210938444726E+01    2.5547671488805008E+01    6.5908222871594422E+00
O    2.0896731074579925E+01    2.5496361709486845E+01    1.9465294293800657E+01
O    7.0467519114507589E+00    6.9304427762699792E+00    6.5941698339894899E+00
O    7.0137041281682118E+00    6.8374337121512534E+00    1.9803605083523635E+01
O    7.0428387465478925E+00    1.6106964270566117E+01    6.6315261114751527E+00
O    7.0084931488715592E+00    1.6150270114013487E+01    1.9557367396626766E+01
O    7.1774640753467054E+00    2.5452078490617254E+01    6.7115005386856703E+00
O    6.9307433353718464E+00    2.5519563338401152E+01    1.9713337665391837E+01
O    1.6314480592781315E+01    6.9105823858331590E+00    6.3942600413885495E+00
O    1.6202873544969638E+01    7.0419684789333035E+00    1.9641031975981210E+01
O    1.6373782581882146E+01    1.6178545576673933E+01    6.5860954064509158E+00
O    1.6302167600953855E+01    1.6245215861919277E+01    1.9717397279591310E+01
O    1.6391243867099281E+01    2.5508394101653440E+01    6.5983936143948654E+00
O    1.6220513470598242E+01    2.5551157135200388E+01    1.9529201075143760E+01
O    2.5591691098039959E+01    6.9259855900249310E+00    6.4313685137407850E+00
O    2.5538178595028061E+01    7.0569654696570376E+00    1.9640839799565278E+01
O    2.5646212835806928E+01    1.6230706296533199E+01    6.7464248982668105E+00
O    2.5629133869940880E+01    1.6158431082477293E+01    1.9548432487884110E+01
O    2.5599671155742122E+01    2.5506867987909697E+01    6.5368753823272323E+00
O    2.5624040107969687E+01    2.5532168909087698E+01    1.9625735840279301E+01
O    6.8648122709496358E+00    2.2857266986947740E+00    2.4587063981702979E-02
O    6.9938861395868193E+00    2.2961052193267775E+00    1.3085345643697412E+01
O    6.9597825045388619E+00    1.1463615493761166E+01    2.6153381675202887E+01
O    6.9972810245349004E+00    1.1632508315237398E+01    1.3045409703798292E+01
O    6.8631516836510684E+00    2.0851125750312903E+01    9.2505399720936091E-02
O    6.9501708158742863E+00    2.0809847691397291E+01    1.3338269864571300E+01
O    1.6223844959962904E+01    2.2834514218207271E+00    2.6133198668280940E+01
O    1.6407813762182098E+01    2.3541070443114189E+00    1.2909025070173533E+01
O    1.6337259501300966E+01    1.1634331020504586E+01    2.2088012872146498E-02
O    1.6200417382847903E+01    1.1540440888536347E+01    1.3218663811957454E+01
O    1.6321116669480315E+01    2.0841075586878237E+01    1.3248536127757904E-01
O    1.6228127847514791E+01    2.0795592802841899E+01    1.3256920082101400E+01
O    2.5504598958556763E+01    2.4349276040081489E+00   -5.3955349231284524E-04
O    2.5605163592964267E+01    2.3029090497918139E+00    1.3090951217137821E+01
O    2.5517113917841751E+01    1.1709319173446767E+01    2.6136003319013298E+01
O    2.5555129243104400E+01    1.1549250471456885E+01    1.3056063510729441E+01
O    2.5603588798556824E+01    2.0820172827047969E+01    1.5136074274563623E-02
O    2.5525483986276349E+01    2.0831876948132393E+01    1.3193922678009011E+01
O    2.2280867527738533E+00    2.2139401587587906E+00   -1.7669655433366375E-03
O    2.2707214800999433E+00    2.3690842465040221E+00    1.3055140878792091E+01
O    2.2249627057530721E+00    1.1536644967366110E+01    2.6112389985583125E+01
O    2.3460647753375188E+00    1.1686065094532060E+01    1.3005845392551652E+01
O    2.2648069876633858E+00    2.0764448685261442E+01    4.7703025746987496E-02
O    2.2221546449870764E+00    2.1046993800496420E+01    1.3207549085163087E+01
O    1.1546593047605825E+01    2.2994231274735268E+00    3.9940015726228392E-02
O    1.1697264451541722E+01    2.2604837516581866E+00    1.3023647311520770E+01
O    1.1679840026483548E+01    1.1507322363324505E+01    1.4511941903248696E-01
O    1.1521675714811039E+01    1.1743460467959348E+01    1.3202135206554825E+01
O    1.1487490842661185E+01    2.0729161942083909E+01    2.6184184979559618E+01
O    1.1544755126236797E+01    2.0866846055228418E+01    1.3067020500097708E+01
O    2.0740393689957560E+01    2.4181139678082513E+00    2.6147836075393823E+01
O    2.0972054594253439E+01    2.2695286544151601E+00    1.3133625152231824E+01
O    2.0893422891506116E+01    1.1699546145744510E+01    2.6197778241836641E+01
O    2.0658517249832396E+01    1.1434823192933964E+01    1.3146663914969238E+01
O    2.0924789267143439E+01    2.0822705477159463E+01    2.6253456249262216E-02
O    2.0952228398101116E+01    2.0872184155303277E+01    1.3227130227974612E+01
Si    2.7814202986399057E+01    2.7820760608778315E+01    2.6174620977350390E+01
Si    4.3157746407192596E-02    2.7799544644831183E+01    1.3228773399536399E+01
Si    2.7766017437076734E+01    9.3101995803590647E+00    2.6194849111166420E+01
Si    2.7801230054801014E+01    9.2170986722784534E+00    1.3025053127567380E+01
Si    2.7689236489172050E+01    1.8558411160303926E+01    2.6178616071501022E+01
Si    5.2728608196111124E-02    1.8619606102018832E+01    1.3248545199127395E+01
Si    9.2065382507860427E+00    2.3981663561272258E-02    2.6180532468558489E+01
Si    9.2953234647104335E+00    7.5901433138372040E-02    1.3125386236618221E+01
Si    9.3891909133199096E+00    9.1980413743016989E+00    3.0511789662739222E-02
Si    9.2834923790246417E+00    9.3449341263874803E+00    1.3079211989858340E+01
Si    9.2834128446280424E+00    1.8527670782346121E+01    1.0007579905957692E-01
Si    9.2022913217960802E+00    1.8518952629235244E+01    1.3227342540260400E+01
Si    1.8570314716392321E+01    3.2266597543052090E-02    2.6230159171193076E+01
Si    1.8556666966677465E+01    2.7790954641671949E+01    1.3014332354288731E+01
Si    1.8680842175083519E+01    9.2889223495627125E+00    6.4917680461769725E-02
Si    1.8531410051339609E+01    9.1996219080140431E+00    1.3066967265720379E+01
Si    1.8604594586938440E+01    1.8486016155743751E+01    2.6192895017065805E+01
Si    1.8516528635996877E+01    1.8496755603424649E+01    1.3066502540372989E+01
Si    4.5397269001335454E+00    4.5769103258291626E+00    4.3320501523893801E-02
Si    4.6245414464213024E+00    4.6229600795725396E+00    1.3148786380821264E+01
Si    4.6547905660017772E+00    1.3909639356005568E+01    1.5801296074237615E-02
Si    4.6360563838256192E+00    1.3972045744512798E+01    1.3150013133182854E+01
Si    4.5118239242514475E+00    2.3023301781132307E+01    1.2868703382063584E-02
Si    4.6776162912474817E+00    2.3259083567768347E+01    1.3136059521943144E+01
Si    1.3894573957458681E+01    4.7351187515434239E+00    2.6226461377596184E+01
Si    1.3837021359991878E+01    4.6729907744880537E+00    1.3103682396944370E+01
Si    1.3962770013849441E+01    1.3876419528045840E+01   -5.3253275715730254E-03
Si    1.3828170215592021E+01    1.3948140378241566E+01    1.3083384448373296E+01
Si    1.3892269096961801E+01    2.3162370259588901E+01    4.4168808387509834E-02
Si    1.3733676856355396E+01    2.3155515546413326E+01    1.3105197057319170E+01
Si    2.3115416650667726E+01    4.7465885662766159E+00    2.6214271888583617E+01
Si    2.3130538584203183E+01    4.6237950095506353E+00    1.3095747698379082E+01
Si    2.3159930984443896E+01    1.3887439507030823E+01    2.6156663885696684E+01
Si    2.3045142994253059E+01    1.3842177001525336E+01    1.3038192054473148E+01
Si    2.3155023183132592E+01    2.3319028857361275E+01    2.6169267195971301E+01
Si    2.3247011598886939E+01    2.3265275673894397E+01    1.3208163216839406E+01
Si    6.6947883423447596E-02    2.7801372108631146E+01    6.5847803507949578E+00
Si    5.4194007570789605E-02    2.7802045721043665E+01    1.9760162299765380E+01
Si    2.9264723540095180E-02    9.2834513899131128E+00    6.4780237102677871E+00
Si    6.0362182961288230E-02    9.2981678031219257E+00    1.9698494523223427E+01
Si    1.5791268941968888E-03    1.8572756388956098E+01    6.5022105358498177E+00
Si    2.7765105404496893E+01    1.8520876520101222E+01    1.9651129020319019E+01
Si    9.3118439171873870E+00    2.6243111196146383E-02    6.5486199494105435E+00
Si    9.2692344304196634E+00    2.4381316940641971E-02    1.9722815917754769E+01
Si    9.2341626883867960E+00    9.3064360504175596E+00    6.5496920969058436E+00
Si    9.3849249845698974E+00    9.2909163650312951E+00    1.9755548154715726E+01
Si    9.2893873100865516E+00    1.8619856621444850E+01    6.6104280374607107E+00
Si    9.3329220680433007E+00    1.8530919085221061E+01    1.9793006587771522E+01
Si    1.8709589667382929E+01    2.7764899209956919E+01    6.6327587990708281E+00
Si    1.8498048263326112E+01    2.7834138461570952E+01    1.9661009770214005E+01
Si    1.8625218229689633E+01    9.2314796469573110E+00    6.5402045796717134E+00
Si    1.8640029915133631E+01    9.2142064713179010E+00    1.9652127096686453E+01
Si    1.8613403053019244E+01    1.8602260288527216E+01    6.5831443226270547E+00
Si    1.8518839345460982E+01    1.8412148916498342E+01    1.9577484373194249E+01
Si    4.6447232621071892E+00    4.5984894280422903E+00    6.4770565903083011E+00
Si    4.5898031861997648E+00    4.5767714206372343E+00    1.9767576649242642E+01
Si    4.7022343154368880E+00    1.4004445519968245E+01    6.5772654630740712E+00
Si    4.7011082095159082E+00    1.3959134398624411E+01    1.9765385564209524E+01
Si    4.6642146851367858E+00    2.3138504374297064E+01    6.6345443720482242E+00
Si    4.6764569390695607E+00    2.3166246321881907E+01    1.9731120281936580E+01
Si    1.3897121352487213E+01    4.5641310932148862E+00    6.4736588537991260E+00
Si    1.3965509481030237E+01    4.6569939984623065E+00    1.9653868989860648E+01
Si    1.4075874887454027E+01    1.3940127617521076E+01    6.6426395433566947E+00
Si    1.3918521440244366E+01    1.3899608185173621E+01    1.9628271510415797E+01
Si    1.3925103481606381E+01    2.3202393740932383E+01    6.5499207982494223E+00
Si    1.3861002290041244E+01    2.3085609650036314E+01    1.9641605892773097E+01
Si    2.3171091202573635E+01    4.5974981219126931E+00    6.4515670942609038E+00
Si    2.3278568090589811E+01    4.7120859380843418E+00    1.9574469806544649E+01
Si    2.3219691792896999E+01    1.3887726374636960E+01    6.4991633189376925E+00
Si    2.3281165346965242E+01    1.3925642932188451E+01    1.9695091017188744E+01
Si    2.3258702240756534E+01    2.3285741139243740E+01    6.5725005977434092E+00
Si    2.3220605259860854E+01    2.3146566520633435E+01    1.9658582954390429E+01
Ca    4.5758596814073922E+00    2.7579432660745567E+01    3.3034569302480596E+00
Ca    4.6240552399749566E+00    8.8009267053226883E-02    1.6427403274497010E+01
Ca    4.6016618170125057E+00    9.1654466141797624E+00    3.2725534039428976E+00
Ca    4.7906601071925445E+00    9.3888865795146739E+00    1.6358016509241914E+01
Ca    4.5679573289429447E+00    1.8545504096969758E+01    3.2366901261208572E+00
Ca    4.6859652451659999E+00    1.8602484805620453E+01    1.6435280424462110E+01
Ca    1.3922103075809648E+01    2.4176341859112188E-02    3.2247008759246016E+00